19

C       0.4020055500     0.8014436987    -1.0764255809
N      -0.2678769565    -0.1817227128    -0.2201309470
C      -1.6909700388     0.1225399683    -0.0669858756
C      -0.0434614434    -1.5474317219    -0.6952550751
H       0.2666333935     1.7962006662    -0.6571120701
H       1.4663131249     0.5792746589    -1.1158713303
H      -0.0107697671     0.7746171163    -2.0846526370
H      -1.8034018935     1.1213682411     0.3501917924
H      -2.1490720434    -0.5920661147     0.6139420627
H      -2.1978283629     0.0755011755    -1.0312866697
H      -0.5081619799    -2.2558245393    -0.0123075569
H       1.0259008063    -1.7468173753    -0.7279634065
H      -0.4655962336    -1.6797038530    -1.6919351242
H       0.1984146638    -0.0923566009     0.7656994714
F      -0.2155887084     2.2414848959     1.6992222769
H       0.3031549997     1.4851096872     2.0248303758
F       0.8990904280     0.1371742880     1.9945609873
H       2.1204794970    -0.3558186903     1.3322511181
F       2.6707349644    -0.6829727878     0.5992281885
