19
-29.649356
C      -0.9977652066     0.3394474581    -1.1976170091
N      -0.3229159866    -0.1691428795    -0.0030392400
C      -1.0008224006     0.2663308643     1.2181197671
C      -0.1648360707    -1.6224692786    -0.0459543781
H      -1.0480423720     1.4256052367    -1.1512390852
H      -0.4340036952     0.0546312776    -2.0837020495
H      -2.0084105403    -0.0646840625    -1.2707174449
H      -1.0472819845     1.3533115230     1.2396868035
H      -0.4421965827    -0.0753878013     2.0871488881
H      -2.0131577793    -0.1375757751     1.2621289939
H       0.3954620235    -1.9570748238     0.8245212381
H       0.4002566252    -1.9048301820    -0.9315604401
H      -1.1373892545    -2.1167007287    -0.0633380568
H       0.7024382150     0.2892132328     0.0125122267
F       0.4989197776     2.8666491740     0.0646927632
H       1.2070595224     2.3064033730     0.0558630964
F       1.9180392368     0.8954372435     0.0314474726
H       2.6680427009    -0.3977238498    -0.0093594264
F       2.8266037716    -1.3514400017    -0.0395941193
19
-29.651858
C       0.2767616284     0.9219705452    -1.2539270535
N      -0.1821093080    -0.0839783598    -0.2956720082
C      -1.5975129968     0.0946274883     0.0285927867
C       0.1010330086    -1.4420050577    -0.7589127962
H       0.0966129769     1.9163563615    -0.8502348449
H       1.3450973077     0.8030416496    -1.4229624023
H      -0.2499477091     0.8185174268    -2.2036242955
H      -1.7557520748     1.0966860975     0.4224003253
H      -1.8914188413    -0.6281247648     0.7871025149
H      -2.2172012829    -0.0451118527    -0.8582618154
H      -0.1940369492    -2.1599076176     0.0033164716
H       1.1695640904    -1.5583725592    -0.9265164269
H      -0.4364469647    -1.6540994400    -1.6843706765
H       0.3928831046     0.0842035894     0.6545815380
F      -0.4532337725     2.3089862698     1.7207327511
H       0.2171330774     1.6633570292     1.9719137590
F       1.0689228333     0.3430235041     1.8042682203
H       1.9641751121    -0.8420216338     1.6294790413
F       2.3454767599    -1.6371486758     1.2320949112
19
-29.651858
C       0.2767616284     0.9219705452    -1.2539270535
N      -0.1821093080    -0.0839783598    -0.2956720082
C      -1.5975129968     0.0946274883     0.0285927867
C       0.1010330086    -1.4420050577    -0.7589127962
H       0.0966129769     1.9163563615    -0.8502348449
H       1.3450973077     0.8030416496    -1.4229624023
H      -0.2499477091     0.8185174268    -2.2036242955
H      -1.7557520748     1.0966860975     0.4224003253
H      -1.8914188413    -0.6281247648     0.7871025149
H      -2.2172012829    -0.0451118527    -0.8582618154
H      -0.1940369492    -2.1599076176     0.0033164716
H       1.1695640904    -1.5583725592    -0.9265164269
H      -0.4364469647    -1.6540994400    -1.6843706765
H       0.3928831046     0.0842035894     0.6545815380
F      -0.4532337725     2.3089862698     1.7207327511
H       0.2171330774     1.6633570292     1.9719137590
F       1.0689228333     0.3430235041     1.8042682203
H       1.9641751121    -0.8420216338     1.6294790413
F       2.3454767599    -1.6371486758     1.2320949112
19
-29.651880
C       0.2768096800     0.9219254137    -1.2538293002
N      -0.1820015328    -0.0839910726    -0.2954740317
C      -1.5977427927     0.0945799405     0.0284279051
C       0.1011361750    -1.4419999266    -0.7589992293
H       0.0965480537     1.9163589281    -0.8501829626
H       1.3451232544     0.8030171611    -1.4229675354
H      -0.2499508599     0.8185378515    -2.2036057009
H      -1.7559325801     1.0964727134     0.4223029350
H      -1.8914239910    -0.6281004437     0.7870851184
H      -2.2171869603    -0.0451516031    -0.8582703019
H      -0.1941246899    -2.1598795701     0.0033054964
H       1.1695800820    -1.5583992456    -0.9265381031
H      -0.4364666514    -1.6541062729    -1.6843383829
H       0.3925705186     0.0840991992     0.6540346074
F      -0.4524438665     2.3087480644     1.7209295295
H       0.2173174038     1.6629951669     1.9718913193
F       1.0684037588     0.3440872176     1.8046094487
H       1.9642766979    -0.8421966208     1.6295493588
F       2.3455083003    -1.6369969009     1.2320698294
19
-29.652184
C       0.2776038156     0.9213649338    -1.2516350168
N      -0.1825264995    -0.0850356184    -0.2945732585
C      -1.6005153508     0.0922263587     0.0259355052
C       0.1026364406    -1.4421102976    -0.7595362866
H       0.0950285718     1.9160406040    -0.8487450235
H       1.3459039791     0.8024264157    -1.4229531657
H      -0.2497000358     0.8189033121    -2.2021398711
H      -1.7611656219     1.0919307810     0.4199925117
H      -1.8919675332    -0.6276306240     0.7864567649
H      -2.2177573219    -0.0467469899    -0.8604355480
H      -0.1961208728    -2.1588150775     0.0023775206
H       1.1708070641    -1.5592726934    -0.9273201549
H      -0.4369876487    -1.6540224307    -1.6837048845
H       0.3852393877     0.0820531900     0.6419000676
F      -0.4350057549     2.3065487289     1.7247432318
H       0.2268498987     1.6487535666     1.9727214904
F       1.0550277912     0.3717913004     1.8136840449
H       1.9658250462    -0.8443683033     1.6326795432
F       2.3468246447    -1.6340371565     1.2305525293
19
-29.652235
C       0.2775134551     0.9215561111    -1.2518807180
N      -0.1836558042    -0.0856464864    -0.2967039497
C      -1.6009340994     0.0913434305     0.0248158398
C       0.1026198695    -1.4424378932    -0.7600640511
H       0.0947480618     1.9157356562    -0.8479173533
H       1.3458914139     0.8023241601    -1.4225525675
H      -0.2494193905     0.8190028665    -2.2012024777
H      -1.7629886066     1.0913115404     0.4194719970
H      -1.8926369813    -0.6283506081     0.7865449534
H      -2.2180908884    -0.0478108324    -0.8616738786
H      -0.1966754885    -2.1588522343     0.0022450141
H       1.1710551012    -1.5595802280    -0.9275188261
H      -0.4369210909    -1.6539207044    -1.6835179568
H       0.3834548690     0.0823361146     0.6401831305
F      -0.4289240578     2.3064538648     1.7260343309
H       0.2309222644     1.6430240304     1.9728111025
F       1.0515023966     0.3793905306     1.8164767797
H       1.9659726965    -0.8439808689     1.6343125869
F       2.3465662796    -1.6318984496     1.2301360440
19
-29.652282
C       0.2774122766     0.9221577437    -1.2524252050
N      -0.1846467623    -0.0860202133    -0.2987855874
C      -1.6017122047     0.0902949093     0.0241521393
C       0.1022794106    -1.4434109852    -0.7604211818
H       0.0946880502     1.9152045249    -0.8466369686
H       1.3456297722     0.8023734444    -1.4217415779
H      -0.2494171063     0.8192534605    -2.2010679608
H      -1.7647583012     1.0909449555     0.4188057017
H      -1.8935521211    -0.6294934892     0.7860572035
H      -2.2188455604    -0.0496104554    -0.8635944306
H      -0.1970397688    -2.1590775927     0.0019700801
H       1.1709920809    -1.5599413792    -0.9276848246
H      -0.4369200648    -1.6541898335    -1.6842041247
H       0.3816992524     0.0836739188     0.6400733987
F      -0.4217425000     2.3068094908     1.7275697834
H       0.2358678409     1.6364536336     1.9724821072
F       1.0490436944     0.3846692933     1.8187651579
H       1.9655239025    -0.8416877464     1.6370405278
F       2.3454981086    -1.6284036797     1.2296457618
19
-29.652333
C       0.2767519494     0.9225661996    -1.2532753246
N      -0.1857570723    -0.0864172277    -0.2999915165
C      -1.6027393538     0.0893251359     0.0227949923
C       0.1015073318    -1.4441168945    -0.7612431715
H       0.0948059476     1.9147585923    -0.8448154195
H       1.3454000463     0.8026249799    -1.4205993051
H      -0.2495430441     0.8198790321    -2.2016786190
H      -1.7665118894     1.0906259648     0.4178729314
H      -1.8948435084    -0.6313379260     0.7850646273
H      -2.2197018744    -0.0521588909    -0.8655774142
H      -0.1973584233    -2.1598739744     0.0018131749
H       1.1705887684    -1.5604650790    -0.9278142284
H      -0.4367994622    -1.6549084804    -1.6855140679
H       0.3797142441     0.0860470760     0.6412154906
F      -0.4128226007     2.3072779906     1.7294943085
H       0.2414717975     1.6295972058     1.9715388921
F       1.0480923121     0.3867119533     1.8205185069
H       1.9645528082    -0.8374316784     1.6408463346
F       2.3431920232    -1.6227039791     1.2293498080
19
-29.652399
C       0.2758191262     0.9228854148    -1.2535737542
N      -0.1869766745    -0.0865937042    -0.3005304046
C      -1.6047568518     0.0877732896     0.0213642857
C       0.1002920771    -1.4451351638    -0.7618365655
H       0.0950413431     1.9140475677    -0.8422301298
H       1.3447402391     0.8031675563    -1.4188919051
H      -0.2499170406     0.8212125803    -2.2033947987
H      -1.7688070473     1.0896821715     0.4160087675
H      -1.8967416604    -0.6338054429     0.7824718582
H      -2.2209207598    -0.0561516530    -0.8682288477
H      -0.1976338585    -2.1610472403     0.0010323723
H       1.1695036822    -1.5612464404    -0.9279507316
H      -0.4366067568    -1.6562688880    -1.6878519979
H       0.3765413879     0.0897103667     0.6431085578
F      -0.3990334510     2.3076411926     1.7323957658
H       0.2492040882     1.6212609137     1.9696651622
F       1.0486528291     0.3853663908     1.8223222559
H       1.9625928684    -0.8294139879     1.6470099052
F       2.3390064595    -1.6130849235     1.2291102046
19
-29.652447
C       0.2746805868     0.9227257032    -1.2534950885
N      -0.1879308547    -0.0868601220    -0.2993215889
C      -1.6064168523     0.0867526526     0.0195617087
C       0.0993449679    -1.4451832700    -0.7625954378
H       0.0950862044     1.9136686160    -0.8404260416
H       1.3440945229     0.8036392868    -1.4176667088
H      -0.2498983657     0.8227933685    -2.2044553297
H      -1.7706011259     1.0883505781     0.4140532438
H      -1.8984171817    -0.6358630066     0.7799613181
H      -2.2215683083    -0.0592537529    -0.8696245000
H      -0.1979623923    -2.1622353648     0.0002287148
H       1.1683407889    -1.5618361014    -0.9279485329
H      -0.4362093631    -1.6573380577    -1.6892365039
H       0.3736462086     0.0919832782     0.6438143923
F      -0.3879561700     2.3078701487     1.7344257896
H       0.2551789168     1.6165967837     1.9681284955
F       1.0507254819     0.3804521727     1.8233476587
H       1.9606646409    -0.8217787523     1.6520425796
F       2.3351982947    -1.6044841606     1.2292058310
19
-29.652476
C       0.2742765104     0.9223863185    -1.2520774371
N      -0.1884055850    -0.0868806416    -0.2983793179
C      -1.6076135472     0.0856902133     0.0187901285
C       0.0990352879    -1.4450265862    -0.7623140608
H       0.0947494614     1.9135463853    -0.8398084475
H       1.3434189540     0.8038113408    -1.4171538387
H      -0.2497540818     0.8240871880    -2.2046249484
H      -1.7720526118     1.0868890636     0.4123560345
H      -1.8995324551    -0.6367344878     0.7779042710
H      -2.2218068340    -0.0608781507    -0.8703260599
H      -0.1983204888    -2.1627302032    -0.0008720320
H       1.1676710542    -1.5620341383    -0.9278545455
H      -0.4360053964    -1.6576690091    -1.6895735915
H       0.3713657189     0.0918449182     0.6424602957
F      -0.3808220416     2.3078114464     1.7352629376
H       0.2590147964     1.6154910206     1.9675182060
F       1.0524139346     0.3759236664     1.8243937830
H       1.9593348638    -0.8165929514     1.6548582733
F       2.3330324599    -1.5989353929     1.2294403497
19
-29.652496
C       0.2740144097     0.9222417315    -1.2510169744
N      -0.1889672322    -0.0872450369    -0.2976094701
C      -1.6083203766     0.0850237988     0.0178930210
C       0.0991953722    -1.4446087362    -0.7623508868
H       0.0941098183     1.9137776129    -0.8397239010
H       1.3430070371     0.8036894281    -1.4169868993
H      -0.2493208726     0.8251135598    -2.2035492971
H      -1.7734841386     1.0855274730     0.4109977647
H      -1.9004775389    -0.6373683025     0.7768465342
H      -2.2217793485    -0.0615442797    -0.8707277210
H      -0.1988979327    -2.1630685729    -0.0016065102
H       1.1675161133    -1.5619337680    -0.9276002776
H      -0.4358457502    -1.6573326291    -1.6889383472
H       0.3696921702     0.0898898870     0.6399504393
F      -0.3765697742     2.3081026745     1.7350523605
H       0.2621991558     1.6159582212     1.9678391722
F       1.0531967281     0.3727482623     1.8257990644
H       1.9584150556    -0.8132288329     1.6560809453
F       2.3323171043    -1.5957424910     1.2296509831
19
-29.652515
C       0.2740530942     0.9224043919    -1.2494912431
N      -0.1897727089    -0.0876371091    -0.2979510221
C      -1.6091198836     0.0838629177     0.0171854881
C       0.0994426180    -1.4445369382    -0.7620282031
H       0.0931751302     1.9142222634    -0.8396694002
H       1.3426294979     0.8033727828    -1.4167593580
H      -0.2490252882     0.8260783442    -2.2019609717
H      -1.7754546479     1.0842899248     0.4096435393
H      -1.9016653777    -0.6380330478     0.7759847284
H      -2.2218329236    -0.0620457800    -0.8717052078
H      -0.1996430270    -2.1632716093    -0.0024340506
H       1.1678685447    -1.5615942496    -0.9271444793
H      -0.4358943736    -1.6565312461    -1.6881616076
H       0.3682071201     0.0864045523     0.6369330852
F      -0.3722996819     2.3086780393     1.7341208596
H       0.2662685792     1.6171012201     1.9688034092
F       1.0532289749     0.3701890505     1.8280960212
H       1.9575248399    -0.8101951007     1.6565912937
F       2.3323095132    -1.5927584062     1.2299471187
19
-29.652532
C       0.2740207360     0.9229680233    -1.2486058001
N      -0.1908161648    -0.0882643345    -0.2986856476
C      -1.6100711604     0.0828711818     0.0163586886
C       0.0997333068    -1.4447552298    -0.7621735005
H       0.0922241519     1.9148241085    -0.8391762398
H       1.3424410812     0.8030170680    -1.4161976281
H      -0.2489610576     0.8269093146    -2.2002654533
H      -1.7777175145     1.0832195039     0.4084332773
H      -1.9031087853    -0.6390616209     0.7754431136
H      -2.2220806363    -0.0626884287    -0.8733378243
H      -0.2004704245    -2.1636146453    -0.0029006392
H       1.1684251144    -1.5611283604    -0.9264522544
H      -0.4360679734    -1.6556072844    -1.6877295062
H       0.3671789350     0.0823434209     0.6347711457
F      -0.3678275337     2.3095865783     1.7326061633
H       0.2711909913     1.6182519006     1.9701412410
F       1.0523998926     0.3684320110     1.8309281954
H       1.9565403366    -0.8072763217     1.6567071447
F       2.3329667048    -1.5900268853     1.2301355240
19
-29.652545
C       0.2738852312     0.9236644638    -1.2479483842
N      -0.1917510169    -0.0887525641    -0.2995084251
C      -1.6112527650     0.0817031928     0.0154528702
C       0.0996094085    -1.4453362253    -0.7624582445
H       0.0915139889     1.9153341519    -0.8381470491
H       1.3423475557     0.8028199306    -1.4152374881
H      -0.2493591710     0.8275582457    -2.1992290243
H      -1.7799687691     1.0825631478     0.4075358888
H      -1.9046487903    -0.6401822012     0.7748401199
H      -2.2224536212    -0.0635576218    -0.8753305363
H      -0.2011093929    -2.1639517221    -0.0032217883
H       1.1690555179    -1.5606701882    -0.9256337082
H      -0.4362861878    -1.6549209478    -1.6881127309
H       0.3666372161     0.0785656080     0.6342396808
F      -0.3630746091     2.3105877132     1.7307137551
H       0.2763313260     1.6194164247     1.9714733515
F       1.0509183245     0.3672070026     1.8338423341
H       1.9556155728    -0.8048225263     1.6564193423
F       2.3339901818    -1.5872258844     1.2303100360
19
-29.652558
C       0.2735052904     0.9242678343    -1.2475300797
N      -0.1925926298    -0.0893182734    -0.2997776924
C      -1.6125510035     0.0809262391     0.0145821352
C       0.0994156879    -1.4458749172    -0.7630836551
H       0.0910822694     1.9156554202    -0.8365489757
H       1.3421888813     0.8028907299    -1.4138538430
H      -0.2500723819     0.8281586096    -2.1986965739
H      -1.7821367189     1.0817693246     0.4067109764
H      -1.9063318959    -0.6413991900     0.7739545977
H      -2.2229146383    -0.0647135111    -0.8775774862
H      -0.2016124382    -2.1643861087    -0.0034432071
H       1.1692917864    -1.5602687312    -0.9246810168
H      -0.4363945129    -1.6546003998    -1.6892870798
H       0.3663197366     0.0752177064     0.6352926538
F      -0.3578188730     2.3117154153     1.7283377101
H       0.2815805174     1.6209195018     1.9726864282
F       1.0488602014     0.3660211597     1.8367409694
H       1.9546471174    -0.8025548151     1.6558591466
F       2.3355336044    -1.5844259944     1.2303149920
19
-29.652572
C       0.2727754248     0.9246115874    -1.2468209598
N      -0.1932656051    -0.0897907758    -0.2992774451
C      -1.6140508169     0.0798583091     0.0133447416
C       0.0986508410    -1.4463967565    -0.7638459301
H       0.0908881777     1.9156294094    -0.8343638543
H       1.3418092629     0.8032952185    -1.4120134631
H      -0.2510193693     0.8288360227    -2.1984165178
H      -1.7843525561     1.0809795563     0.4059533378
H      -1.9082961897    -0.6426163303     0.7724792745
H      -2.2232082034    -0.0660947805    -0.8797766590
H      -0.2019722278    -2.1648196875    -0.0039591264
H       1.1692588268    -1.5599368963    -0.9236379438
H      -0.4361283704    -1.6546234256    -1.6910776333
H       0.3658987372     0.0721486535     0.6377883816
F      -0.3517648969     2.3132408260     1.7251010740
H       0.2870914212     1.6232924121     1.9737865047
F       1.0462134016     0.3642326272     1.8397410496
H       1.9536921730    -0.8005508079     1.6548313648
F       2.3377799692    -1.5812951617     1.2301638040
19
-29.652587
C       0.2718352628     0.9245447591    -1.2455476040
N      -0.1939602209    -0.0904664215    -0.2980265972
C      -1.6154362625     0.0791773887     0.0122713096
C       0.0980359614    -1.4465131280    -0.7646140454
H       0.0908372381     1.9151752092    -0.8316681564
H       1.3410422055     0.8040412952    -1.4098329103
H      -0.2519839604     0.8296232593    -2.1979532225
H      -1.7864978283     1.0796518798     0.4050225004
H      -1.9105829704    -0.6438640098     0.7703903205
H      -2.2233161247    -0.0676333034    -0.8819608168
H      -0.2023828388    -2.1654017332    -0.0048497256
H       1.1685415098    -1.5597107347    -0.9226120393
H      -0.4353905445    -1.6549605844    -1.6932850701
H       0.3649688636     0.0696210388     0.6413650449
F      -0.3450017226     2.3153741940     1.7208874507
H       0.2924866010     1.6267216905     1.9746097895
F       1.0429926551     0.3616980898     1.8427692450
H       1.9528503557    -0.7989689845     1.6533935535
F       2.3409618204    -1.5781099050     1.2296409736
19
-29.652603
C       0.2706475902     0.9240808089    -1.2434569893
N      -0.1946093810    -0.0911470663    -0.2960450049
C      -1.6168595339     0.0779838895     0.0108863875
C       0.0969841704    -1.4465108437    -0.7652448297
H       0.0907331898     1.9142746891    -0.8284397115
H       1.3399634613     0.8050152183    -1.4074097976
H      -0.2527342489     0.8305608788    -2.1967183117
H      -1.7886667869     1.0782189488     0.4040219557
H      -1.9132914914    -0.6451664678     0.7677051725
H      -2.2229646102    -0.0691557139    -0.8838284780
H      -0.2029867845    -2.1661383549    -0.0064180800
H       1.1676663169    -1.5596169875    -0.9217905200
H      -0.4339147961    -1.6553951911    -1.6953791665
H       0.3629930265     0.0677866561     0.6454499764
F      -0.3373771049     2.3185847590     1.7155218224
H       0.2977734176     1.6310498028     1.9750335926
F       1.0391415013     0.3583286145     1.8458920679
H       1.9522648093    -0.7979349656     1.6516731165
F       2.3452372542    -1.5748186748     1.2285467976
19
-29.652625
C       0.2694398229     0.9233997409    -1.2399739650
N      -0.1957669184    -0.0923516061    -0.2936193111
C      -1.6184157652     0.0766999595     0.0095517685
C       0.0963587328    -1.4462930488    -0.7656013287
H       0.0902628456     1.9129588728    -0.8240715323
H       1.3384772277     0.8061631852    -1.4044199738
H      -0.2533321512     0.8317711579    -2.1941034391
H      -1.7912909138     1.0760259003     0.4025334900
H      -1.9170341806    -0.6470918247     0.7642807992
H      -2.2222873732    -0.0709219713    -0.8861989606
H      -0.2042678023    -2.1675086219    -0.0088093503
H       1.1664109164    -1.5596243351    -0.9210922478
H      -0.4316722831    -1.6557279543    -1.6975730743
H       0.3591962656     0.0664704615     0.6500859749
F      -0.3272347043     2.3237739453     1.7081184342
H       0.3038496197     1.6365439615     1.9749236859
F       1.0339980439     0.3537117951     1.8498021284
H       1.9520056954    -0.7973348322     1.6496636367
F       2.3513029223    -1.5706647857     1.2265032651
19
-29.652657
C       0.2678939766     0.9226139856    -1.2343182979
N      -0.1977344820    -0.0942309296    -0.2904300509
C      -1.6210372114     0.0740018759     0.0075044454
C       0.0954661440    -1.4464441336    -0.7658130508
H       0.0889511213     1.9112340628    -0.8170647861
H       1.3366275630     0.8074588907    -1.3999922612
H      -0.2538529620     0.8335972822    -2.1888846213
H      -1.7953380831     1.0729731956     0.4002702985
H      -1.9229975681    -0.6504270320     0.7594561950
H      -2.2211265715    -0.0733283432    -0.8899239323
H      -0.2068278682    -2.1701155341    -0.0126939270
H       1.1654057859    -1.5597181187    -0.9203420001
H      -0.4280909633    -1.6555734332    -1.6999902376
H       0.3520988905     0.0653067189     0.6558573091
F      -0.3110340664     2.3328781672     1.6966344127
H       0.3126615931     1.6439030804     1.9739711036
F       1.0259991885     0.3468357916     1.8558208978
H       1.9520768468    -0.7967189952     1.6473640997
F       2.3608586663    -1.5642465312     1.2225744034
19
-29.652700
C       0.2663750789     0.9223131261    -1.2259323907
N      -0.2012414171    -0.0973260292    -0.2868859162
C      -1.6251699683     0.0699345189     0.0047492654
C       0.0951591965    -1.4472397766    -0.7656864351
H       0.0863785522     1.9092862810    -0.8064450230
H       1.3345749391     0.8086410503    -1.3934944643
H      -0.2545620434     0.8361873029    -2.1806132819
H      -1.8013830908     1.0685558098     0.3969212530
H      -1.9319455867    -0.6560051274     0.7532774227
H      -2.2198136971    -0.0766465268    -0.8960753187
H      -0.2112100159    -2.1746730045    -0.0181488537
H       1.1648499269    -1.5598736027    -0.9191986771
H      -0.4233886613    -1.6544143215    -1.7029365512
H       0.3409074248     0.0641516056     0.6628442595
F      -0.2862414464     2.3471508271     1.6801124558
H       0.3251209971     1.6528318428     1.9715423496
F       1.0143727763     0.3372122871     1.8647248045
H       1.9527556929    -0.7959635361     1.6450874036
F       2.3744613421    -1.5541227266     1.2161576979
19
-29.652741
C       0.2651404067     0.9227080556    -1.2175734570
N      -0.2052048414    -0.1005839300    -0.2841907583
C      -1.6302978752     0.0649684588     0.0018368553
C       0.0950809198    -1.4489609272    -0.7654554849
H       0.0831334865     1.9080963560    -0.7946926660
H       1.3333450762     0.8090605825    -1.3862923760
H      -0.2553390431     0.8389644328    -2.1716245985
H      -1.8079866490     1.0640972840     0.3935265638
H      -1.9414498102    -0.6623852216     0.7475745477
H      -2.2191314991    -0.0799397499    -0.9033216070
H      -0.2161806587    -2.1801422231    -0.0235110808
H       1.1656787794    -1.5600533728    -0.9175147671
H      -0.4191573985    -1.6520462504    -1.7054214039
H       0.3288603574     0.0631068030     0.6689051104
F      -0.2584647277     2.3628101506     1.6633124741
H       0.3377444540     1.6598592399     1.9675544351
F       1.0021125779     0.3278042921     1.8741235821
H       1.9539747530    -0.7948599356     1.6441870305
F       2.3881416920    -1.5425040448     1.2085776006
19
-29.652775
C       0.2647973811     0.9239320278    -1.2120736241
N      -0.2084320328    -0.1029882134    -0.2831347361
C      -1.6344898773     0.0612409540    -0.0004648181
C       0.0957014038    -1.4507931330    -0.7650594729
H       0.0806132829     1.9078820903    -0.7860848320
H       1.3332196914     0.8085300727    -1.3805802862
H      -0.2561038232     0.8410664519    -2.1657597940
H      -1.8127814745     1.0608964416     0.3913815677
H      -1.9480364981    -0.6672791311     0.7444712007
H      -2.2196248884    -0.0819471146    -0.9089588359
H      -0.2197039521    -2.1845147219    -0.0267605276
H       1.1672613939    -1.5601876335    -0.9153441635
H      -0.4172324820    -1.6491713971    -1.7068481805
H       0.3209137414     0.0621889479     0.6721276715
F      -0.2375625258     2.3741936380     1.6523065491
H       0.3456157542     1.6622103067     1.9628816846
F       0.9935985563     0.3218383608     1.8803851997
H       1.9555425774    -0.7939523750     1.6450276355
F       2.3967037719    -1.5331455722     1.2024877622
19
-29.652805
C       0.2645163852     0.9249988817    -1.2089644053
N      -0.2105514842    -0.1044108538    -0.2827258060
C      -1.6379553154     0.0584762729    -0.0021055746
C       0.0961376207    -1.4522836490    -0.7649009149
H       0.0790443525     1.9083520201    -0.7799667830
H       1.3336403520     0.8075278413    -1.3756425775
H      -0.2567409402     0.8429339149    -2.1624864925
H      -1.8162070748     1.0584150746     0.3902780235
H      -1.9522189442    -0.6704935212     0.7427819293
H      -2.2211700609    -0.0828832959    -0.9130891677
H      -0.2216530114    -2.1876608518    -0.0284215143
H       1.1691108065    -1.5602057552    -0.9122938046
H      -0.4168419088    -1.6460624538    -1.7075855509
H       0.3169928673     0.0603381111     0.6738642354
F      -0.2226393454     2.3821574546     1.6452047698
H       0.3497958521     1.6619087783     1.9577704267
F       0.9877311364     0.3179879145     1.8840905554
H       1.9571843423    -0.7930323852     1.6467270825
F       2.4018243704    -1.5260634982     1.1974655689
19
-29.652836
C       0.2640133853     0.9260898472    -1.2057642728
N      -0.2127498569    -0.1057792860    -0.2817258999
C      -1.6412331056     0.0559804020    -0.0041499245
C       0.0964292870    -1.4532614933    -0.7646750139
H       0.0781652642     1.9084823092    -0.7741220198
H       1.3336766457     0.8064929633    -1.3696667091
H      -0.2573844012     0.8453571721    -2.1601533945
H      -1.8197506462     1.0555712712     0.3895906784
H      -1.9561447326    -0.6733422612     0.7409285735
H      -2.2234157051    -0.0834136366    -0.9166548992
H      -0.2228087142    -2.1903223853    -0.0299235211
H       1.1705105211    -1.5600696761    -0.9077298555
H      -0.4167646024    -1.6425767206    -1.7086226372
H       0.3150182523     0.0566316852     0.6761349867
F      -0.2083028629     2.3901220319     1.6375840255
H       0.3529824633     1.6616114994     1.9514559384
F       0.9816324968     0.3134443529     1.8872309077
H       1.9592426090    -0.7921937288     1.6482841645
F       2.4068837025    -1.5188243465     1.1919788728
19
-29.652869
C       0.2626691024     0.9262537030    -1.2014957284
N      -0.2151741704    -0.1072461827    -0.2797037454
C      -1.6449172649     0.0531885347    -0.0062172730
C       0.0959593344    -1.4535706431    -0.7646028714
H       0.0777784007     1.9081364230    -0.7670618339
H       1.3329016226     0.8057129252    -1.3616488051
H      -0.2575826736     0.8489532542    -2.1571999476
H      -1.8243094016     1.0516787738     0.3888693166
H      -1.9609657404    -0.6763568740     0.7375563804
H      -2.2262229333    -0.0840219328    -0.9203210064
H      -0.2237556234    -2.1929105253    -0.0320645185
H       1.1711730986    -1.5597589478    -0.9014397199
H      -0.4158453154    -1.6387634770    -1.7101304226
H       0.3134272493     0.0506930890     0.6798018417
F      -0.1909868542     2.3997613522     1.6270786890
H       0.3566945475     1.6624216388     1.9432225330
F       0.9734725945     0.3070431621     1.8909828367
H       1.9619249475    -0.7912807205     1.6494068151
F       2.4137590798    -1.5099335527     1.1849674597
19
-29.652894
C       0.2612591830     0.9260577884    -1.1967066667
N      -0.2176427390    -0.1087048829    -0.2771978432
C      -1.6477080523     0.0510659408    -0.0082086353
C       0.0950893921    -1.4531411248    -0.7643148903
H       0.0780230554     1.9068648612    -0.7611210522
H       1.3313707246     0.8055178571    -1.3542481452
H      -0.2570555184     0.8526138595    -2.1544003541
H      -1.8287120878     1.0482267422     0.3883554504
H      -1.9655012644    -0.6791545012     0.7337358419
H      -2.2282322227    -0.0847102259    -0.9224848508
H      -0.2245995069    -2.1944815908    -0.0344190880
H       1.1704483318    -1.5593256887    -0.8958193153
H      -0.4139352476    -1.6362749507    -1.7118666589
H       0.3119482487     0.0447053123     0.6834477551
F      -0.1752946800     2.4079382528     1.6168224589
H       0.3603074296     1.6637688458     1.9355794918
F       0.9655529469     0.3009452596     1.8944474464
H       1.9644099564    -0.7903228929     1.6498164900
F       2.4202720507    -1.5015888619     1.1785825655
19
-29.652909
C       0.2601536727     0.9251760836    -1.1930037264
N      -0.2194143403    -0.1096498608    -0.2753184512
C      -1.6495835084     0.0497714715    -0.0088115411
C       0.0939439894    -1.4525483991    -0.7642650760
H       0.0783069090     1.9058407909    -0.7569543631
H       1.3299912454     0.8057710549    -1.3493504296
H      -0.2558554497     0.8553649946    -2.1517256808
H      -1.8321397608     1.0460291606     0.3879244117
H      -1.9689731103    -0.6813785134     0.7303230426
H      -2.2290224203    -0.0856095524    -0.9235830013
H      -0.2258248128    -2.1952056374    -0.0362671343
H       1.1691592257    -1.5588432666    -0.8926369596
H      -0.4113699755    -1.6356891688    -1.7132918647
H       0.3098718946     0.0405444907     0.6859220335
F      -0.1636821224     2.4129984688     1.6091421379
H       0.3639392289     1.6648794040     1.9305648283
F       0.9596310371     0.2966852630     1.8973217734
H       1.9659287159    -0.7890280478     1.6497347143
F       2.4249395818    -1.4951087362     1.1742752864
19
-29.652920
C       0.2596834720     0.9249520250    -1.1899057739
N      -0.2210491567    -0.1104791758    -0.2741239844
C      -1.6509770904     0.0490589393    -0.0090948393
C       0.0929642817    -1.4522755859    -0.7640615077
H       0.0785343390     1.9050017073    -0.7540757547
H       1.3292250548     0.8059845650    -1.3461662153
H      -0.2544458178     0.8573080170    -2.1495852163
H      -1.8349012785     1.0449664636     0.3878332721
H      -1.9717226020    -0.6835733088     0.7279437458
H      -2.2290612573    -0.0864741438    -0.9239250593
H      -0.2275336608    -2.1954523941    -0.0375438327
H       1.1679270073    -1.5582630077    -0.8910343177
H      -0.4087888024    -1.6362223219    -1.7146604744
H       0.3074789606     0.0376686825     0.6872912470
F      -0.1548903071     2.4158029966     1.6034316676
H       0.3674207688     1.6651405002     1.9270932542
F       0.9552523768     0.2938902513     1.8997118578
H       1.9668107597    -0.7872462062     1.6496323895
F       2.4280729524    -1.4897880035     1.1712395419
19
-29.652932
C       0.2597246612     0.9247968218    -1.1869570161
N      -0.2228875744    -0.1111754928    -0.2733166836
C      -1.6526951998     0.0484162011    -0.0085738819
C       0.0918514667    -1.4523310903    -0.7640069232
H       0.0787313165     1.9047864123    -0.7509204167
H       1.3290464615     0.8059702483    -1.3429404025
H      -0.2524314816     0.8592619323    -2.1472681916
H      -1.8378738679     1.0443174877     0.3882518899
H      -1.9745575512    -0.6861438056     0.7258405679
H      -2.2290863162    -0.0872644467    -0.9241862464
H      -0.2302306653    -2.1956219646    -0.0384099764
H       1.1668157287    -1.5573718093    -0.8896343872
H      -0.4056944077    -1.6374300786    -1.7162669132
H       0.3045231560     0.0345848359     0.6882548079
F      -0.1459211834     2.4177922312     1.5972795657
H       0.3712774327     1.6644566499     1.9231707658
F       0.9507663681     0.2912254390     1.9022262667
H       1.9677306173    -0.7846606467     1.6494903103
F       2.4309110387    -1.4836089250     1.1679668646
19
-29.652945
C       0.2602878534     0.9254208474    -1.1840737495
N      -0.2248155417    -0.1118749261    -0.2729321718
C      -1.6547027689     0.0480647622    -0.0077119827
C       0.0907087038    -1.4528099173    -0.7638399491
H       0.0791146064     1.9050285362    -0.7476843138
H       1.3298616137     0.8054927009    -1.3394395415
H      -0.2499477884     0.8611056209    -2.1452740733
H      -1.8407352741     1.0440037559     0.3896395184
H      -1.9772207328    -0.6889162643     0.7246555037
H      -2.2293727019    -0.0874820876    -0.9240977654
H      -0.2338113186    -2.1956174807    -0.0387800444
H       1.1660980767    -1.5561889252    -0.8879836951
H      -0.4025062312    -1.6390892459    -1.7181690581
H       0.3015586484     0.0311914274     0.6889412952
F      -0.1378532961     2.4187942896     1.5905104677
H       0.3746178110     1.6627695934     1.9184048488
F       0.9463494602     0.2886014896     1.9045010172
H       1.9688055093    -0.7814439631     1.6491693397
F       2.4335633709    -1.4770502134     1.1641643539
19
-29.652956
C       0.2616831168     0.9261287166    -1.1828842145
N      -0.2260298621    -0.1119271814    -0.2731837782
C      -1.6558666950     0.0482413610    -0.0062182872
C       0.0900139732    -1.4534098618    -0.7638214884
H       0.0798731188     1.9059942036    -0.7458931335
H       1.3314541120     0.8046519156    -1.3368912177
H      -0.2474710470     0.8620936620    -2.1446890205
H      -1.8418845544     1.0443155367     0.3922181205
H      -1.9780745685    -0.6902215281     0.7252372184
H      -2.2301576284    -0.0864159207    -0.9231497905
H      -0.2370578048    -2.1951211207    -0.0381900264
H       1.1659095606    -1.5551491913    -0.8864050776
H      -0.4004297149    -1.6408375741    -1.7194754406
H       0.3001982157     0.0287589727     0.6888666049
F      -0.1357390091     2.4173659198     1.5856871597
H       0.3749660678     1.6602104855     1.9141219322
F       0.9441507248     0.2871968547     1.9050786786
H       1.9698722609    -0.7789747788     1.6483779173
F       2.4345897337    -1.4729004713     1.1612138434
19
-29.652967
C       0.2629571563     0.9270599898    -1.1818092443
N      -0.2266928171    -0.1120464274    -0.2734300147
C      -1.6569277461     0.0485554558    -0.0050481910
C       0.0894794547    -1.4540203164    -0.7637247996
H       0.0808273426     1.9068413261    -0.7440924187
H       1.3334863799     0.8036775495    -1.3340286703
H      -0.2452201736     0.8627576240    -2.1443804871
H      -1.8421802632     1.0440707721     0.3953173354
H      -1.9784571339    -0.6907610042     0.7265347067
H      -2.2314642179    -0.0845225933    -0.9222539351
H      -0.2401590241    -2.1947636171    -0.0378095625
H       1.1661817980    -1.5545081721    -0.8842987371
H      -0.3990335936    -1.6421271087    -1.7205952005
H       0.2989963235     0.0269069452     0.6892354633
F      -0.1357136063     2.4159772506     1.5801040946
H       0.3742951038     1.6583147557     1.9100210341
F       0.9423262378     0.2854012868     1.9054903233
H       1.9708928509    -0.7770524815     1.6468141119
F       2.4364059283    -1.4697612350     1.1579541916
19
-29.652979
C       0.2653449839     0.9276307895    -1.1835601176
N      -0.2260719003    -0.1110284879    -0.2747156245
C      -1.6556278286     0.0502982521    -0.0027955116
C       0.0893825077    -1.4541904821    -0.7636017854
H       0.0829676251     1.9080177296    -0.7460552549
H       1.3362437789     0.8024987236    -1.3334140779
H      -0.2423021480     0.8620128137    -2.1466484082
H      -1.8390314287     1.0451561298     0.4004742706
H      -1.9751202004    -0.6883206982     0.7305706946
H      -2.2333534928    -0.0803791843    -0.9187023380
H      -0.2421464378    -2.1928482404    -0.0361071421
H       1.1664643814    -1.5545058401    -0.8827129862
H      -0.3992531865    -1.6440117165    -1.7203215236
H       0.3006732512     0.0272762936     0.6875703541
F      -0.1474307486     2.4087665423     1.5790240453
H       0.3679039605     1.6545686315     1.9071797397
F       0.9450638033     0.2866648845     1.9027149238
H       1.9717257576    -0.7764100726     1.6443385080
F       2.4345673222    -1.4711960682     1.1567622341
19
-29.652991
C       0.2669883864     0.9278038363    -1.1818893730
N      -0.2266432106    -0.1112641740    -0.2744472801
C      -1.6563221267     0.0503729102    -0.0021468306
C       0.0889991485    -1.4544912288    -0.7635432011
H       0.0846883561     1.9081382510    -0.7435237115
H       1.3382274406     0.8016657210    -1.3287193205
H      -0.2393063312     0.8627627939    -2.1460989273
H      -1.8379529862     1.0436455432     0.4049515221
H      -1.9750278101    -0.6875245978     0.7322183674
H      -2.2359917609    -0.0767534659    -0.9174869244
H      -0.2456637333    -2.1928152016    -0.0369040369
H       1.1665521454    -1.5552272077    -0.8789029877
H      -0.3982552917    -1.6445880425    -1.7211583098
H       0.2982880309     0.0264040980     0.6887163797
F      -0.1496404279     2.4069123554     1.5697785859
H       0.3663925258     1.6536215819     1.9025790408
F       0.9430121873     0.2836442422     1.9040664539
H       1.9727393567    -0.7745933364     1.6405945968
F       2.4389161010    -1.4677140785     1.1519159562
19
-29.653005
C       0.2682023499     0.9273675644    -1.1825616510
N      -0.2259949366    -0.1108529183    -0.2751823134
C      -1.6549650684     0.0519249127    -0.0009260151
C       0.0885275056    -1.4540986770    -0.7631963875
H       0.0870312730     1.9076321361    -0.7450816244
H       1.3399464497     0.8011628857    -1.3271830307
H      -0.2361349529     0.8624882701    -2.1474877307
H      -1.8344847371     1.0435805127     0.4091774536
H      -1.9721502654    -0.6849367903     0.7347442078
H      -2.2382970515    -0.0728106634    -0.9142849619
H      -0.2469761062    -2.1915930459    -0.0369733129
H       1.1661400361    -1.5569112484    -0.8766948789
H      -0.3986464330    -1.6451839054    -1.7205022073
H       0.2982809261     0.0278853175     0.6874177467
F      -0.1592812057     2.4001364460     1.5671770152
H       0.3617150785     1.6510232754     1.9006396124
F       0.9452660276     0.2844781464     1.9032349126
H       1.9729983426    -0.7736221408     1.6374161000
F       2.4388227678    -1.4676700777     1.1502670653
19
-29.653017
C       0.2689177910     0.9262479129    -1.1805683172
N      -0.2271954143    -0.1114184665    -0.2745804112
C      -1.6553972086     0.0516611110    -0.0011605668
C       0.0878431113    -1.4540269390    -0.7630313288
H       0.0883539473     1.9062634554    -0.7431400369
H       1.3400632404     0.8012072520    -1.3231390173
H      -0.2332408781     0.8637357309    -2.1464909386
H      -1.8338152787     1.0425038264     0.4112266427
H      -1.9727024723    -0.6850249725     0.7338949787
H      -2.2403953511    -0.0709152251    -0.9133671438
H      -0.2491025188    -2.1923282968    -0.0388608395
H       1.1649547877    -1.5592122539    -0.8736321988
H      -0.3977858915    -1.6443748912    -1.7208642581
H       0.2949347049     0.0280044357     0.6877295720
F      -0.1574709545     2.3976693298     1.5601659475
H       0.3631260110     1.6500112713     1.8981023856
F       0.9435268604     0.2828595105     1.9063713091
H       1.9729818233    -0.7707877939     1.6347509550
F       2.4424036907    -1.4620749970     1.1465932663
19
-29.653025
C       0.2688888257     0.9255841861    -1.1786129827
N      -0.2282693578    -0.1122540504    -0.2740745641
C      -1.6565581218     0.0515427634    -0.0012835160
C       0.0868464607    -1.4543324286    -0.7627265953
H       0.0888810652     1.9050835651    -0.7411073135
H       1.3402558074     0.8011431164    -1.3198620252
H      -0.2310014737     0.8650107031    -2.1453437879
H      -1.8341329669     1.0420285193     0.4117176423
H      -1.9741565182    -0.6864725165     0.7321551031
H      -2.2417268518    -0.0703908713    -0.9132604551
H      -0.2509607440    -2.1936084229    -0.0404187175
H       1.1639481227    -1.5612244411    -0.8714669461
H      -0.3968416120    -1.6431421644    -1.7215393562
H       0.2918513226     0.0275882526     0.6880116532
F      -0.1527266952     2.3961237720     1.5547188208
H       0.3662323619     1.6488919727     1.8964107553
F       0.9415490277     0.2815794323     1.9097478366
H       1.9727053213    -0.7675563516     1.6333269644
F       2.4452160262    -1.4555950362     1.1436074839
19
-29.653035
C       0.2694685711     0.9249553257    -1.1762966366
N      -0.2298724672    -0.1132244096    -0.2732681402
C      -1.6582096511     0.0513254346    -0.0011959400
C       0.0856514471    -1.4552484213    -0.7622986987
H       0.0891583406     1.9040765112    -0.7382877125
H       1.3408498391     0.8006804094    -1.3156503730
H      -0.2282069218     0.8664522683    -2.1441629619
H      -1.8346279319     1.0422454001     0.4122640181
H      -1.9763680031    -0.6889078226     0.7298840941
H      -2.2432727028    -0.0696649615    -0.9131978478
H      -0.2538127726    -2.1957674066    -0.0419403846
H       1.1627109530    -1.5638314694    -0.8687215765
H      -0.3957189653    -1.6410866339    -1.7226833813
H       0.2884238506     0.0266188230     0.6885655408
F      -0.1465518117     2.3938894233     1.5477350524
H       0.3702118703     1.6471641193     1.8942764793
F       0.9389866071     0.2799640162     1.9139380097
H       1.9723164139    -0.7629922941     1.6316502222
F       2.4488633346    -1.4466483123     1.1393902365
19
-29.653042
C       0.2702404104     0.9246811695    -1.1747698559
N      -0.2307362748    -0.1139759874    -0.2725341283
C      -1.6594854372     0.0515909994    -0.0006063885
C       0.0845232757    -1.4563276230    -0.7617056481
H       0.0891577828     1.9036082063    -0.7362746393
H       1.3420337586     0.7997652744    -1.3123467419
H      -0.2258222690     0.8671287786    -2.1436148097
H      -1.8345112652     1.0430428262     0.4128515667
H      -1.9781193190    -0.6908958818     0.7283336422
H      -2.2444076194    -0.0684625272    -0.9129049753
H      -0.2565380486    -2.1978926398    -0.0427407159
H       1.1618504704    -1.5661608888    -0.8664327489
H      -0.3951293573    -1.6387734408    -1.7236421517
H       0.2867088632     0.0256104618     0.6892249544
F      -0.1433929852     2.3913774584     1.5422312824
H       0.3722980996     1.6454642473     1.8926924205
F       0.9373647076     0.2788341144     1.9167096110
H       1.9721502907    -0.7593521905     1.6300293087
F       2.4518149167    -1.4392623570     1.1355000176
19
-29.653048
C       0.2712130623     0.9245088591    -1.1743007890
N      -0.2307410289    -0.1142307970    -0.2718856773
C      -1.6596782931     0.0521733792     0.0001765510
C       0.0838201063    -1.4571718953    -0.7611215688
H       0.0890113072     1.9035641814    -0.7357500670
H       1.3432893572     0.7986973699    -1.3107140310
H      -0.2242418471     0.8667367206    -2.1437642804
H      -1.8335960358     1.0441555020     0.4135312161
H      -1.9788810981    -0.6915565639     0.7279138746
H      -2.2447684807    -0.0668025115    -0.9122548600
H      -0.2585747821    -2.1993298580    -0.0428545923
H       1.1612786411    -1.5678316241    -0.8651040821
H      -0.3952361391    -1.6367975102    -1.7240278520
H       0.2871132288     0.0249964404     0.6897881983
F      -0.1446132889     2.3889070651     1.5395360176
H       0.3715949768     1.6442222635     1.8920796486
F       0.9371911778     0.2785928856     1.9174030120
H       1.9722699827    -0.7575144981     1.6286991726
F       2.4535491536    -1.4353194087     1.1326501090
19
-29.653054
C       0.2723319021     0.9241833367    -1.1741775603
N      -0.2300877165    -0.1143667978    -0.2710741546
C      -1.6591413013     0.0530537273     0.0011225921
C       0.0831209110    -1.4578000246    -0.7604602533
H       0.0887937814     1.9035445411    -0.7360840052
H       1.3446437765     0.7974328120    -1.3097949690
H      -0.2228414155     0.8654554913    -2.1440493254
H      -1.8321207486     1.0453044870     0.4143401937
H      -1.9793139791    -0.6912377487     0.7280363155
H      -2.2444444049    -0.0645570910    -0.9114593256
H      -0.2607041724    -2.2004244284    -0.0428683578
H       1.1606764990    -1.5693656236    -0.8642005046
H      -0.3957241805    -1.6348452268    -1.7240812601
H       0.2887854098     0.0244744325     0.6904946119
F      -0.1486113108     2.3863793320     1.5380888860
H       0.3690588875     1.6432250692     1.8920437223
F       0.9377679253     0.2787497901     1.9170979198
H       1.9727464285    -0.7565461049     1.6272470065
F       2.4550637086    -1.4326599733     1.1297784682
19
-29.653062
C       0.2738502655     0.9233315812    -1.1738302148
N      -0.2289441344    -0.1145690862    -0.2697173710
C      -1.6579131651     0.0542858363     0.0022495592
C       0.0820730005    -1.4584418000    -0.7596257172
H       0.0885573187     1.9031948765    -0.7369528088
H       1.3463637285     0.7956974332    -1.3087170508
H      -0.2208689711     0.8629908833    -2.1440984610
H      -1.8300237933     1.0465778918     0.4155300571
H      -1.9800489561    -0.6900233214     0.7283280020
H      -2.2432450003    -0.0611918386    -0.9106174803
H      -0.2640964718    -2.2015350545    -0.0432792300
H       1.1595269331    -1.5714555848    -0.8631854720
H      -0.3965183154    -1.6324089151    -1.7240273992
H       0.2914696234     0.0236693794     0.6916241339
F      -0.1548972746     2.3831068575     1.5367933744
H       0.3648485733     1.6419485821     1.8922866420
F       0.9387548251     0.2791087296     1.9166205357
H       1.9737725275    -0.7553103376     1.6252404593
F       2.4573392865    -1.4289761128     1.1253784415
19
-29.653075
C       0.2759722153     0.9215204045    -1.1724778459
N      -0.2275019108    -0.1153170265    -0.2673742566
C      -1.6562729827     0.0558393438     0.0034250462
C       0.0801013581    -1.4592165577    -0.7586540189
H       0.0883600465     1.9020299651    -0.7377910687
H       1.3485576264     0.7932981632    -1.3063786942
H      -0.2176788702     0.8589282137    -2.1432527315
H      -1.8275860658     1.0477452002     0.4172026266
H      -1.9820543739    -0.6879992552     0.7282154111
H      -2.2407426321    -0.0563999193    -0.9103558442
H      -0.2701739598    -2.2029785828    -0.0448455130
H       1.1573498363    -1.5747650299    -0.8615020240
H      -0.3975051885    -1.6291290078    -1.7242303247
H       0.2945943049     0.0219676848     0.6936098348
F      -0.1619190754     2.3789608116     1.5345417798
H       0.3596716140     1.6399591976     1.8925168393
F       0.9395410844     0.2791952439     1.9172886804
H       1.9757409430    -0.7524089618     1.6223143450
F       2.4615460303    -1.4212298873     1.1177477583
19
-29.653094
C       0.2786351120     0.9182870018    -1.1692175806
N      -0.2262953882    -0.1170001189    -0.2636961508
C      -1.6548067482     0.0574563213     0.0042138642
C       0.0767776569    -1.4604526106    -0.7577650114
H       0.0883813155     1.8994943497    -0.7377121020
H       1.3513370790     0.7901951468    -1.3014327324
H      -0.2127277759     0.8529922517    -2.1407354895
H      -1.8254602525     1.0484822638     0.4193665356
H      -1.9864842421    -0.6855101907     0.7269323224
H      -2.2365536304    -0.0502866909    -0.9116903393
H      -0.2803646535    -2.2050233417    -0.0484721990
H       1.1535696837    -1.5799375696    -0.8585014168
H      -0.3985477409    -1.6248885891    -1.7252990551
H       0.2969677873     0.0186435043     0.6968304613
F      -0.1666511505     2.3741173048     1.5303131326
H       0.3551043065     1.6367543322     1.8923095912
F       0.9392251483     0.2783773562     1.9210133035
H       1.9790592578    -0.7459073557     1.6183412644
F       2.4688342351    -1.4057933652     1.1052016015
19
-29.653118
C       0.2816794008     0.9138091728    -1.1639390751
N      -0.2259974340    -0.1199319082    -0.2590734058
C      -1.6544651456     0.0588196993     0.0041884005
C       0.0719661740    -1.4622336315    -0.7574095846
H       0.0889391608     1.8955560228    -0.7359846228
H       1.3544007968     0.7868368554    -1.2933293551
H      -0.2063308127     0.8457527435    -2.1365087720
H      -1.8244464566     1.0485347105     0.4217576953
H      -1.9935316376    -0.6833025135     0.7240046149
H      -2.2310842915    -0.0439129457    -0.9153688342
H      -0.2943981867    -2.2076212060    -0.0542975792
H       1.1484072159    -1.5869344639    -0.8539888221
H      -0.3994459134    -1.6203188697    -1.7276735640
H       0.2969609997     0.0135524113     0.7010032686
F      -0.1658561752     2.3692301011     1.5241729783
H       0.3533937262     1.6322187751     1.8914198333
F       0.9372330840     0.2761388951     1.9290996204
H       1.9837249272    -0.7347291684     1.6136664481
F       2.4788505678    -1.3814646798     1.0882607555
19
-29.653141
C       0.2843691193     0.9091580842    -1.1580020429
N      -0.2270240605    -0.1233289379    -0.2547903870
C      -1.6557262625     0.0597008378     0.0033213385
C       0.0668044255    -1.4645900929    -0.7577431888
H       0.0902850042     1.8912247555    -0.7327648342
H       1.3575047574     0.7839353555    -1.2833946839
H      -0.1997728786     0.8389412968    -2.1317927862
H      -1.8247154778     1.0482506031     0.4240037991
H      -2.0014764494    -0.6822598648     0.7199601654
H      -2.2259743695    -0.0387918127    -0.9205524173
H      -0.3091805270    -2.2103102867    -0.0609011396
H       1.1428938853    -1.5945173371    -0.8485793793
H      -0.4000641479    -1.6165663035    -1.7311667015
H       0.2938841169     0.0076533208     0.7050518372
F      -0.1593142803     2.3651091305     1.5176216542
H       0.3554114360     1.6270976614     1.8898427451
F       0.9339197672     0.2726281449     1.9402013892
H       1.9889757961    -0.7204948906     1.6090976387
F       2.4892001456    -1.3528396646     1.0705869932
19
-29.653161
C       0.2868223836     0.9054839179    -1.1530553573
N      -0.2288171779    -0.1265051591    -0.2517993368
C      -1.6579909371     0.0604495349     0.0023018746
C       0.0620757373    -1.4670191400    -0.7584599018
H       0.0922360175     1.8877222264    -0.7292215584
H       1.3603679702     0.7816447937    -1.2737674389
H      -0.1941983467     0.8337409635    -2.1282266079
H      -1.8253889392     1.0482838477     0.4258526404
H      -2.0081229919    -0.6824513145     0.7159150781
H      -2.2226387388    -0.0352090556    -0.9253355151
H      -0.3215773847    -2.2128462026    -0.0663594467
H       1.1383121828    -1.6014687641    -0.8432029534
H      -0.4004117748    -1.6139661810    -1.7347679013
H       0.2891183301     0.0021537612     0.7081554073
F      -0.1510381648     2.3619313947     1.5124161013
H       0.3591441474     1.6223624149     1.8879622372
F       0.9303477656     0.2686620569     1.9510064034
H       1.9940771072    -0.7064058215     1.6050666625
F       2.4976828144    -1.3265632732     1.0555196128
19
-29.653178
C       0.2891080165     0.9025028968    -1.1492037543
N      -0.2306965321    -0.1290698460    -0.2496355498
C      -1.6603132270     0.0613632039     0.0014376380
C       0.0579948550    -1.4697049057    -0.7589519987
H       0.0945162799     1.8850688934    -0.7260242852
H       1.3635570423     0.7792648882    -1.2647904736
H      -0.1891418007     0.8294213761    -2.1257261344
H      -1.8256183924     1.0490490924     0.4273483831
H      -2.0134352344    -0.6831955654     0.7121045576
H      -2.2207114690    -0.0319582465    -0.9290452350
H      -0.3320637850    -2.2155472660    -0.0705690994
H       1.1341600914    -1.6081026873    -0.8379235950
H      -0.4007748824    -1.6117146384    -1.7381582344
H       0.2841525856    -0.0030660551     0.7108158771
F      -0.1441930991     2.3594205932     1.5088512830
H       0.3622496365     1.6181853913     1.8862202203
F       0.9267198970     0.2646235122     1.9602246187
H       1.9994358662    -0.6932111893     1.6010668863
F       2.5050541517    -1.3033294476     1.0419588956
19
-29.653199
C       0.2925636604     0.8993223047    -1.1463396960
N      -0.2320296711    -0.1316377494    -0.2478818960
C      -1.6619646091     0.0633683712     0.0009240451
C       0.0532270166    -1.4727563448    -0.7592763114
H       0.0976063017     1.8826268029    -0.7243894220
H       1.3676432962     0.7759022024    -1.2560356134
H      -0.1834501611     0.8238119216    -2.1244205298
H      -1.8242363513     1.0511522617     0.4287419637
H      -2.0176632922    -0.6832301554     0.7084416181
H      -2.2190933592    -0.0274243377    -0.9318252499
H      -0.3428612913    -2.2186076718    -0.0740183196
H       1.1295441505    -1.6160912014    -0.8325181342
H      -0.4017638853    -1.6093952898    -1.7411596394
H       0.2796795625    -0.0085798506     0.7133254249
F      -0.1422600473     2.3559204895     1.5091441809
H       0.3627807408     1.6134845512     1.8859176294
F       0.9237726459     0.2609293643     1.9681054266
H       2.0065146022    -0.6788197458     1.5959424559
F       2.5119906910    -1.2799759228     1.0273220672
19
-29.653228
C       0.2981175060     0.8942649018    -1.1411847515
N      -0.2339406758    -0.1355405918    -0.2446657349
C      -1.6638933481     0.0663773571     0.0002101565
C       0.0460044156    -1.4777261817    -0.7587809798
H       0.1023529499     1.8789089817    -0.7214823289
H       1.3746044442     0.7695728331    -1.2418337319
H      -0.1735071760     0.8154768870    -2.1216571609
H      -1.8216721921     1.0543197217     0.4307655709
H      -2.0245648354    -0.6830853375     0.7025392397
H      -2.2174616054    -0.0189204068    -0.9353004929
H      -0.3601673050    -2.2240828160    -0.0792630956
H       1.1219453445    -1.6286449227    -0.8235224200
H      -0.4027548105    -1.6053280863    -1.7455681682
H       0.2730316077    -0.0180052473     0.7185808659
F      -0.1408426936     2.3523004242     1.5083145759
H       0.3615485726     1.6075748742     1.8852659534
F       0.9171025329     0.2542091751     1.9787134906
H       2.0186514091    -0.6573621279     1.5865348904
F       2.5254458594    -1.2443094377     1.0023341212
19
-29.653263
C       0.3064977769     0.8879476711    -1.1428967547
N      -0.2322766586    -0.1377742382    -0.2446184865
C      -1.6611774348     0.0736762504     0.0003826339
C       0.0383948848    -1.4831662623    -0.7580856762
H       0.1100553391     1.8759943599    -0.7292418513
H       1.3836953729     0.7608739870    -1.2351930491
H      -0.1627106635     0.8017100229    -2.1249080454
H      -1.8118782211     1.0627169841     0.4317262921
H      -2.0239902893    -0.6772109003     0.6998370407
H      -2.2155721500    -0.0071713169    -0.9343941565
H      -0.3748132099    -2.2274047348    -0.0803787099
H       1.1128607833    -1.6439517471    -0.8185461597
H      -0.4075126772    -1.6043264892    -1.7467070793
H       0.2713593690    -0.0248930032     0.7204820358
F      -0.1654787699     2.3427262239     1.5314549878
H       0.3487253004     1.5996265782     1.8950945507
F       0.9185662888     0.2529363198     1.9800831180
H       2.0348781635    -0.6349387237     1.5747232419
F       2.5303767955    -1.2173709817     0.9811860675
19
-29.653307
C       0.3150627369     0.8807002690    -1.1341755698
N      -0.2343260924    -0.1436820011    -0.2395944888
C      -1.6622988253     0.0773464290    -0.0005783396
C       0.0284047733    -1.4889934107    -0.7561313204
H       0.1160869780     1.8703901954    -0.7255328693
H       1.3925692352     0.7505611341    -1.2167501118
H      -0.1469539405     0.7920505691    -2.1198888325
H      -1.8080789420     1.0654854009     0.4338899020
H      -2.0337865045    -0.6755654010     0.6922687928
H      -2.2149884211     0.0064607510    -0.9377554885
H      -0.3986479184    -2.2348153011    -0.0871423094
H       1.1027486554    -1.6599322135    -0.8066255828
H      -0.4073825433    -1.5995015850    -1.7508841375
H       0.2638892766    -0.0380214401     0.7294347227
F      -0.1663676443     2.3408262012     1.5294991254
H       0.3434378251     1.5940459620     1.8950838622
F       0.9064668825     0.2431661941     1.9898113109
H       2.0519074710    -0.6086940228     1.5598171922
F       2.5522569977    -1.1718277304     0.9452541422
19
-29.653369
C       0.3167738491     0.8790487891    -1.1336937308
N      -0.2339437666    -0.1442307985    -0.2400142840
C      -1.6605121150     0.0777336727    -0.0015603069
C       0.0280507980    -1.4895611460    -0.7544052430
H       0.1177471904     1.8693738260    -0.7276483937
H       1.3937080868     0.7469044820    -1.2179108474
H      -0.1424943531     0.7926387231    -2.1195585584
H      -1.8061035856     1.0654812936     0.4321946973
H      -2.0332391265    -0.6728641130     0.6922950769
H      -2.2178310615     0.0097162649    -0.9360936899
H      -0.3997061077    -2.2347074350    -0.0860782236
H       1.1012012923    -1.6608703755    -0.8069796870
H      -0.4067313537    -1.6022338689    -1.7489766547
H       0.2642440694    -0.0391768169     0.7314331110
F      -0.1737665368     2.3443627635     1.5373102754
H       0.3380303954     1.5967588045     1.9003534908
F       0.9030821027     0.2416482863     1.9830050932
H       2.0555986202    -0.6077383406     1.5546672169
F       2.5558916021    -1.1722840112     0.9416606579
19
-29.653440
C       0.3249567988     0.8709745245    -1.1296948231
N      -0.2337662637    -0.1482724321    -0.2386442043
C      -1.6587782280     0.0815337264    -0.0034179615
C       0.0213316253    -1.4939496607    -0.7520090969
H       0.1241960022     1.8632799605    -0.7311722327
H       1.4010119148     0.7356988238    -1.2111055183
H      -0.1255214746     0.7862671998    -2.1186528138
H      -1.7994308095     1.0680636502     0.4324813075
H      -2.0372815256    -0.6658882260     0.6899702483
H      -2.2200243999     0.0223127121    -0.9358879777
H      -0.4165134865    -2.2370439828    -0.0883696115
H       1.0930811916    -1.6727060753    -0.8019420940
H      -0.4079335768    -1.6044597619    -1.7482289040
H       0.2623504973    -0.0452078435     0.7359015944
F      -0.1889833627     2.3390180227     1.5528886600
H       0.3274478905     1.5922217100     1.9113760361
F       0.8973824610     0.2388808888     1.9793647450
H       2.0673201220    -0.5877568694     1.5388141377
F       2.5691546239    -1.1429663673     0.9183285088
19
-29.653513
C       0.3341593495     0.8608959058    -1.1225375535
N      -0.2368173922    -0.1551047781    -0.2361059218
C      -1.6608939928     0.0844408344    -0.0074619063
C       0.0120531465    -1.5012032719    -0.7501128625
H       0.1321552650     1.8544662560    -0.7296366544
H       1.4100138785     0.7221206970    -1.1971331368
H      -0.1046622061     0.7793609238    -2.1156970798
H      -1.7953185372     1.0698111084     0.4318329573
H      -2.0476077739    -0.6606774773     0.6836062409
H      -2.2219722147     0.0347233948    -0.9407231157
H      -0.4402527203    -2.2414481371    -0.0939317878
H       1.0823661279    -1.6883695601    -0.7929729196
H      -0.4091249698    -1.6064303373    -1.7503189874
H       0.2552586780    -0.0551627727     0.7424753703
F      -0.1908229450     2.3351779767     1.5668517405
H       0.3239954206     1.5861264880     1.9233706859
F       0.8880837541     0.2302064367     1.9823980684
H       2.0811164541    -0.5565505334     1.5192688827
F       2.5882706776    -1.0923831538     0.8868279797
19
-29.653645
C       0.3536420854     0.8396426732    -1.1069775421
N      -0.2449507365    -0.1699561900    -0.2313363391
C      -1.6683564678     0.0901691562    -0.0158881528
C      -0.0087058478    -1.5172177245    -0.7475380817
H       0.1495384307     1.8351845846    -0.7224493881
H       1.4295484805     0.6931447211    -1.1634587793
H      -0.0603313880     0.7655931213    -2.1110313951
H      -1.7886462440     1.0734733893     0.4317454469
H      -2.0723616195    -0.6516519129     0.6692355764
H      -2.2254635909     0.0588676917    -0.9528397838
H      -0.4921260022    -2.2513175373    -0.1062897844
H       1.0596825076    -1.7219311718    -0.7714547652
H      -0.4119700362    -1.6100428203    -1.7561212833
H       0.2391520734    -0.0758400144     0.7541839386
F      -0.1853731951     2.3235406609     1.5930758911
H       0.3213356991     1.5680894147     1.9457404304
F       0.8715752505     0.2097252204     1.9922641753
H       2.1067653235    -0.4851241335     1.4797756505
F       2.6270452775    -0.9743491287     0.8193641859
19
-29.653750
C       0.3615498049     0.8296106715    -1.1024971581
N      -0.2526560786    -0.1776154133    -0.2336952606
C      -1.6765165919     0.0900618167    -0.0234811342
C      -0.0169317436    -1.5260385482    -0.7472358649
H       0.1596865946     1.8237850854    -0.7146511232
H       1.4368706445     0.6765676831    -1.1497918989
H      -0.0380421787     0.7672976310    -2.1127821882
H      -1.7899901747     1.0727157287     0.4271045974
H      -2.0868812297    -0.6478550314     0.6624914694
H      -2.2314249030     0.0624309393    -0.9620482956
H      -0.5105409079    -2.2530763593    -0.1090691847
H       1.0511016760    -1.7331916534    -0.7631362608
H      -0.4136548344    -1.6203928558    -1.7574880507
H       0.2301746102    -0.0811693834     0.7544739574
F      -0.1686817044     2.3216703301     1.6192981804
H       0.3285521290     1.5596851568     1.9658898075
F       0.8681824856     0.1960168564     1.9888342003
H       2.1096340421    -0.4477115229     1.4598881043
F       2.6395683600    -0.9127911313     0.7978961031
19
-29.653741
C       0.3858286779     0.8027755866    -1.0816041359
N      -0.2654876597    -0.1968714919    -0.2259541453
C      -1.6896824719     0.0976022381    -0.0332235069
C      -0.0464481536    -1.5484956646    -0.7443394541
H       0.1828997859     1.7983637062    -0.6955183843
H       1.4629856709     0.6375404384    -1.0942957087
H       0.0171804165     0.7468581629    -2.1058123408
H      -1.7858404715     1.0787588603     0.4280117464
H      -2.1268120819    -0.6407249836     0.6390806471
H      -2.2302930869     0.0907339269    -0.9819675924
H      -0.5812922458    -2.2695171240    -0.1274317385
H       1.0191209250    -1.7782253046    -0.7287715448
H      -0.4178604627    -1.6201915073    -1.7695035151
H       0.2081636496    -0.1117622560     0.7676376925
F      -0.1451837159     2.3068248758     1.6425072946
H       0.3306106712     1.5306945472     1.9873688652
F       0.8507421553     0.1611395708     2.0094106605
H       2.1397789706    -0.3487915833     1.4111104098
F       2.6915894271    -0.7367119979     0.7032947509
19
-29.653922
C       0.3683678788     0.8214186994    -1.0956094130
N      -0.2588698168    -0.1836372191    -0.2315701449
C      -1.6839193980     0.0918823917    -0.0265603766
C      -0.0278808479    -1.5340872301    -0.7471065484
H       0.1682699659     1.8145428630    -0.7001694314
H       1.4449403314     0.6616020883    -1.1241867161
H      -0.0221476246     0.7604899381    -2.1109825759
H      -1.7931027300     1.0753491092     0.4265122653
H      -2.1061401339    -0.6484131185     0.6514618156
H      -2.2273126740     0.0673286492    -0.9722449260
H      -0.5337032104    -2.2607769409    -0.1150566963
H       1.0395933813    -1.7473207202    -0.7481115009
H      -0.4156249265    -1.6189108848    -1.7635629193
H       0.2229056577    -0.0921950094     0.7550891686
F      -0.1465014691     2.3183212877     1.6236760505
H       0.3337984427     1.5464209390     1.9703226735
F       0.8668699064     0.1790088482     1.9976373842
H       2.1138690516    -0.4120828080     1.4458240581
F       2.6565882154    -0.8389408828     0.7646378330
19
-29.653976
C       0.3712183539     0.8195664934    -1.0931746066
N      -0.2611588650    -0.1854933985    -0.2314822442
C      -1.6855331776     0.0929431170    -0.0270310033
C      -0.0316846511    -1.5360737470    -0.7467326277
H       0.1725328574     1.8117050662    -0.6945794846
H       1.4471454771     0.6556143794    -1.1152322505
H      -0.0171498501     0.7590083809    -2.1105657211
H      -1.7942018741     1.0763409828     0.4266480293
H      -2.1115198593    -0.6476726261     0.6483008588
H      -2.2263348964     0.0692348591    -0.9741455884
H      -0.5392768056    -2.2626354528    -0.1155857164
H       1.0361145435    -1.7505686995    -0.7428849355
H      -0.4153151047    -1.6201979905    -1.7644635840
H       0.2207199879    -0.0957611130     0.7536052790
F      -0.1422134022     2.3179894106     1.6246768225
H       0.3333192205     1.5435523584     1.9721264263
F       0.8663304848     0.1732979262     1.9974836237
H       2.1140314625    -0.4038988524     1.4388321223
F       2.6629760986    -0.8169510943     0.7542046004
19
-29.654057
C       0.3821310456     0.8091024922    -1.0858138928
N      -0.2663741355    -0.1916420320    -0.2309549085
C      -1.6881606501     0.0989690397    -0.0295128274
C      -0.0443884439    -1.5441003583    -0.7437047994
H       0.1882900775     1.8011184106    -0.6823882852
H       1.4570049342     0.6333964956    -1.0886491902
H       0.0039948789     0.7496079361    -2.1081007796
H      -1.7927098747     1.0818099214     0.4268005357
H      -2.1269100134    -0.6406080665     0.6389615642
H      -2.2222225510     0.0809538422    -0.9791875203
H      -0.5618712732    -2.2684330646    -0.1176671282
H       1.0213466530    -1.7656540637    -0.7275944287
H      -0.4163682474    -1.6252265358    -1.7663982164
H       0.2150415942    -0.1066295768     0.7506649800
F      -0.1429393071     2.3115007700     1.6384477357
H       0.3249336399     1.5327116901     1.9847493678
F       0.8649796694     0.1594272394     1.9945247076
H       2.1182909291    -0.3731527862     1.4118597235
F       2.6859310745    -0.7431513535     0.7139633622
19
-29.654080
C       0.3840848054     0.8078837696    -1.0858350243
N      -0.2662448923    -0.1918783911    -0.2317710357
C      -1.6865751535     0.1009699459    -0.0298187303
C      -0.0456063895    -1.5445222419    -0.7430546242
H       0.1922559487     1.8002990801    -0.6837152076
H       1.4580074068     0.6299288214    -1.0879569927
H       0.0057452834     0.7474525070    -2.1077677859
H      -1.7905452671     1.0837688408     0.4261590686
H      -2.1252430215    -0.6373001767     0.6390984926
H      -2.2219232675     0.0835947413    -0.9787576477
H      -0.5620411822    -2.2683080267    -0.1156161874
H       1.0199695917    -1.7671376281    -0.7274117868
H      -0.4169424214    -1.6283919137    -1.7650063072
H       0.2148419941    -0.1068719795     0.7495582348
F      -0.1526823053     2.3103900840     1.6455818575
H       0.3201862955     1.5335208695     1.9898119217
F       0.8659388805     0.1597987355     1.9904979126
H       2.1188077385    -0.3727909450     1.4060223103
F       2.6879659557    -0.7404060926     0.7099815319
19
-29.654110
C       0.3871729161     0.8040929589    -1.0857239053
N      -0.2657673335    -0.1923429842    -0.2326811318
C      -1.6841317710     0.1050204966    -0.0316753968
C      -0.0477458499    -1.5461605246    -0.7412580921
H       0.1997270684     1.7984995601    -0.6868280666
H       1.4597540790     0.6231394955    -1.0873485572
H       0.0087469015     0.7426669774    -2.1061954042
H      -1.7865868542     1.0879038115     0.4234655011
H      -2.1228033328    -0.6311445961     0.6388627163
H      -2.2200209779     0.0881704409    -0.9798206856
H      -0.5627898327    -2.2682561678    -0.1120036764
H       1.0167903578    -1.7705276067    -0.7277399506
H      -0.4193293760    -1.6338476221    -1.7626950758
H       0.2153021390    -0.1067950552     0.7484408211
F      -0.1694853000     2.3069467025     1.6617400474
H       0.3125673972     1.5326301412     1.9999486670
F       0.8693723769     0.1615927442     1.9838521254
H       2.1186178281    -0.3699874734     1.3969988025
F       2.6906095641    -0.7316012987     0.7006612618
19
-29.654128
C       0.3893302065     0.8018443811    -1.0848845567
N      -0.2660750130    -0.1931618357    -0.2327497394
C      -1.6835685224     0.1072616980    -0.0331432870
C      -0.0491515419    -1.5475323210    -0.7402854267
H       0.2050678837     1.7975511028    -0.6887223978
H       1.4616077219     0.6187752436    -1.0864340614
H       0.0109656641     0.7403309951    -2.1046948003
H      -1.7842374823     1.0907669043     0.4217033902
H      -2.1212680335    -0.6278325281     0.6384756993
H      -2.2198111221     0.0914628091    -0.9815616700
H      -0.5641845234    -2.2685115825    -0.1093853423
H       1.0151579458    -1.7729870720    -0.7272065467
H      -0.4210396858    -1.6374104622    -1.7614183956
H       0.2143438965    -0.1078211244     0.7488235841
F      -0.1789063632     2.3033712478     1.6707857384
H       0.3097512947     1.5311546032     2.0048719277
F       0.8711484708     0.1619582126     1.9818558959
H       2.1189193950    -0.3657954988     1.3910052012
F       2.6919498086    -0.7234247730     0.6929647870
19
-29.654157
C       0.3910133037     0.7997678874    -1.0831486161
N      -0.2668739009    -0.1938331641    -0.2322213723
C      -1.6843195353     0.1093600523    -0.0363245308
C      -0.0496608246    -1.5492164870    -0.7385592862
H       0.2116350931     1.7976102860    -0.6895647025
H       1.4624889277     0.6141215095    -1.0867408582
H       0.0102117826     0.7398975750    -2.1014784401
H      -1.7834226290     1.0939606887     0.4167895197
H      -2.1198010020    -0.6255701173     0.6374924352
H      -2.2195145543     0.0929815094    -0.9859044194
H      -0.5623869909    -2.2689094864    -0.1045394433
H       1.0150974393    -1.7734252447    -0.7274348325
H      -0.4235132171    -1.6421944421    -1.7592386930
H       0.2123910207    -0.1090951664     0.7502720690
F      -0.1854670931     2.2999806131     1.6806104367
H       0.3106909584     1.5296959851     2.0087020019
F       0.8738361328     0.1621828684     1.9812130917
H       2.1166362013    -0.3625820767     1.3857379100
F       2.6909588874    -0.7147327901     0.6843377300
19
-29.654184
C       0.3915236686     0.7997202854    -1.0810110722
N      -0.2680253211    -0.1940982283    -0.2311246382
C      -1.6863852493     0.1094396772    -0.0390446717
C      -0.0486971575    -1.5500537487    -0.7367894796
H       0.2166961707     1.7983167139    -0.6873470979
H       1.4629769239     0.6108087462    -1.0870971329
H       0.0075337884     0.7427463876    -2.0982212367
H      -1.7847473271     1.0958948340     0.4118258941
H      -2.1198833025    -0.6253332712     0.6361638242
H      -2.2200662195     0.0923667705    -0.9902395260
H      -0.5587251784    -2.2696438763    -0.0992837572
H       1.0168965951    -1.7712308319    -0.7272884848
H      -0.4251956069    -1.6458568983    -1.7566463244
H       0.2094932719    -0.1100205184     0.7521992980
F      -0.1853095193     2.2974278938     1.6834493502
H       0.3148833402     1.5283799714     2.0074042806
F       0.8757049058     0.1612349695     1.9828677979
H       2.1129742803    -0.3617710545     1.3825252795
F       2.6883519366    -0.7083278219     0.6776576972
19
-29.654220
C       0.3911258595     0.8011444570    -1.0779551340
N      -0.2694747562    -0.1937738692    -0.2290590860
C      -1.6896653106     0.1080831450    -0.0427576833
C      -0.0461593053    -1.5502682505    -0.7337846488
H       0.2211524206     1.7998830609    -0.6808950274
H       1.4619172416     0.6081866161    -1.0887787522
H       0.0010959557     0.7496966305    -2.0936987634
H      -1.7891005151     1.0963201315     0.4039368472
H      -2.1224736950    -0.6270519220     0.6337514972
H      -2.2206450163     0.0883900014    -0.9959001671
H      -0.5505638121    -2.2706668596    -0.0923829192
H       1.0213418049    -1.7651940631    -0.7277581185
H      -0.4265247450    -1.6493725535    -1.7523369175
H       0.2050403332    -0.1104229645     0.7557840126
F      -0.1778686838     2.2974264367     1.6809997095
H       0.3234843398     1.5285202809     2.0018969520
F       0.8766192145     0.1587985206     1.9867180327
H       2.1071710690    -0.3650447325     1.3804665671
F       2.6835276007    -0.7046540656     0.6717535991
19
-29.654258
C       0.3909333919     0.8030817981    -1.0749664217
N      -0.2704032395    -0.1931078796    -0.2264979533
C      -1.6925712737     0.1060208796    -0.0458905490
C      -0.0429866764    -1.5498192701    -0.7298536571
H       0.2256477909     1.8004897016    -0.6719709190
H       1.4614095001     0.6049105163    -1.0907151451
H      -0.0049236178     0.7578305805    -2.0895775277
H      -1.7939436383     1.0963480237     0.3961428763
H      -2.1274536251    -0.6278781437     0.6306805629
H      -2.2205765601     0.0839630949    -1.0006553775
H      -0.5419971500    -2.2718363692    -0.0848851094
H       1.0258915197    -1.7583234512    -0.7278821925
H      -0.4279079955    -1.6522194210    -1.7463573063
H       0.2003519592    -0.1098768882     0.7597222982
F      -0.1700625057     2.2964302639     1.6754885967
H       0.3313448087     1.5276059909     1.9944981619
F       0.8775534727     0.1557916301     1.9912010603
H       2.1018008804    -0.3689104451     1.3772708704
F       2.6778929585    -0.7005006115     0.6642477319
19
-29.654301
C       0.3924552658     0.8033536504    -1.0721695156
N      -0.2706333667    -0.1926475532    -0.2234471519
C      -1.6939145587     0.1053664310    -0.0491287711
C      -0.0411049606    -1.5497123539    -0.7245033654
H       0.2317266389     1.7990817033    -0.6622440063
H       1.4618236124     0.5994678356    -1.0927942110
H      -0.0084721812     0.7644098932    -2.0858064577
H      -1.7978586920     1.0968919701     0.3879149631
H      -2.1352013514    -0.6259847119     0.6265595230
H      -2.2185221549     0.0805899352    -1.0051424700
H      -0.5348520006    -2.2728183649    -0.0771718250
H       1.0289020260    -1.7531898794    -0.7276168172
H      -0.4303456041    -1.6549243299    -1.7386385997
H       0.1959874408    -0.1093929125     0.7643509913
F      -0.1667998128     2.2935459416     1.6726012340
H       0.3360828456     1.5253258144     1.9897148477
F       0.8788126977     0.1521729591     1.9955406679
H       2.0991599136    -0.3696806931     1.3703254023
F       2.6727542421    -0.6918553351     0.6516555616
19
-29.654339
C       0.3952082807     0.8018344774    -1.0709259875
N      -0.2694783636    -0.1921775218    -0.2209031799
C      -1.6927293229     0.1067533143    -0.0511143650
C      -0.0404100712    -1.5495195350    -0.7191414644
H       0.2388645494     1.7958578703    -0.6560748782
H       1.4635673095     0.5931093051    -1.0959891954
H      -0.0084029078     0.7667698762    -2.0837782189
H      -1.7986167479     1.0992747828     0.3821806674
H      -2.1421525930    -0.6201587595     0.6231897747
H      -2.2142321432     0.0798235314    -1.0079121959
H      -0.5306464746    -2.2728278275    -0.0697520952
H       1.0292670493    -1.7514372188    -0.7274928533
H      -0.4342390641    -1.6570840085    -1.7305160973
H       0.1943620540    -0.1083442481     0.7675828292
F      -0.1742711064     2.2862724846     1.6748878431
H       0.3343781130     1.5206091090     1.9897765699
F       0.8822722386     0.1504416909     1.9979110235
H       2.0998511694    -0.3666426330     1.3613064420
F       2.6674080308    -0.6825546898     0.6367653813
19
-29.654368
C       0.3992185889     0.7980212606    -1.0700824910
N      -0.2684911885    -0.1925854180    -0.2190594777
C      -1.6905077933     0.1104416958    -0.0525440767
C      -0.0423789337    -1.5504981018    -0.7147597289
H       0.2469608605     1.7915359407    -0.6536065968
H       1.4663106451     0.5859370971    -1.0973621584
H      -0.0040752358     0.7646173334    -2.0825978956
H      -1.7967740479     1.1030917390     0.3791801202
H      -2.1476394663    -0.6124441164     0.6204350224
H      -2.2090177677     0.0820866388    -1.0104398878
H      -0.5311554004    -2.2722910113    -0.0640794741
H       1.0266573579    -1.7542133208    -0.7262461031
H      -0.4386409997    -1.6590179364    -1.7244047087
H       0.1944716609    -0.1087820093     0.7693490410
F      -0.1880164721     2.2770906205     1.6822032374
H       0.3281640232     1.5148163197     1.9953918705
F       0.8859800203     0.1488132170     1.9985388067
H       2.1038436040    -0.3577638542     1.3505143145
F       2.6650905446    -0.6688560942     0.6195701859
19
-29.654387
C       0.3999047985     0.7969822094    -1.0711877136
N      -0.2668915217    -0.1914740882    -0.2184400502
C      -1.6881317935     0.1130834494    -0.0525177704
C      -0.0417180854    -1.5495573415    -0.7122754221
H       0.2510099307     1.7904851946    -0.6548712079
H       1.4664234170     0.5846399942    -1.1030012464
H      -0.0043161066     0.7636692062    -2.0826047720
H      -1.7951039170     1.1061559548     0.3785899441
H      -2.1474195475    -0.6071602352     0.6209019685
H      -2.2048550184     0.0819208301    -1.0111777228
H      -0.5270451353    -2.2702291021    -0.0582695109
H       1.0267483628    -1.7540531089    -0.7276848749
H      -0.4420702113    -1.6595899455    -1.7200453999
H       0.1972434704    -0.1068880451     0.7689421498
F      -0.2011459431     2.2697416363     1.6850655100
H       0.3223442079     1.5116329194     1.9989891118
F       0.8902004015     0.1507145004     1.9979225397
H       2.1058756778    -0.3564327094     1.3473748514
F       2.6589470131    -0.6736413190     0.6142896159
19
-29.654404
C       0.4029907138     0.7935328553    -1.0696021915
N      -0.2675406162    -0.1924830245    -0.2175671606
C      -1.6880330984     0.1166602509    -0.0542205087
C      -0.0443364846    -1.5513654671    -0.7096469650
H       0.2586784011     1.7874274197    -0.6534583383
H       1.4685939516     0.5784678682    -1.1021352979
H       0.0004644795     0.7615863183    -2.0812170654
H      -1.7938352096     1.1100351932     0.3771673279
H      -2.1504628222    -0.6016224933     0.6190022428
H      -2.2010766042     0.0840715602    -1.0151693958
H      -0.5285718688    -2.2696916782    -0.0527671084
H       1.0237291079    -1.7578523268    -0.7253258193
H      -0.4455680216    -1.6616928548    -1.7168053323
H       0.1974247401    -0.1082541625     0.7688011209
F      -0.2099277078     2.2624581718     1.6912314102
H       0.3165615777     1.5061897536     2.0062713364
F       0.8919445221     0.1484046595     1.9975861479
H       2.1100964089    -0.3454158161     1.3386777434
F       2.6588685308    -0.6604562273     0.5991778536
19
-29.654420
C       0.4008770840     0.7956989010    -1.0704464828
N      -0.2675058302    -0.1909151243    -0.2179094548
C      -1.6885225729     0.1166311991    -0.0547767427
C      -0.0419772865    -1.5501342123    -0.7088650363
H       0.2591294720     1.7897267267    -0.6533797865
H       1.4663179201     0.5808404933    -1.1072594310
H      -0.0042492616     0.7649765924    -2.0807868676
H      -1.7952160439     1.1105673455     0.3761440406
H      -2.1476699799    -0.6019852759     0.6206470637
H      -2.2004540585     0.0805813463    -1.0166896822
H      -0.5208414641    -2.2679838337    -0.0472795474
H       1.0267894111    -1.7543121873    -0.7274097808
H      -0.4465813737    -1.6622929369    -1.7150096192
H       0.1988021655    -0.1055188790     0.7675279420
F      -0.2099740869     2.2619323017     1.6873480378
H       0.3158008351     1.5069982166     2.0069763626
F       0.8924180629     0.1500969567     1.9968849440
H       2.1092489455    -0.3497731554     1.3411584291
F       2.6536080621    -0.6751344743     0.6031256116
19
-29.654433
C       0.3998171308     0.7977887307    -1.0700810668
N      -0.2682824245    -0.1899869972    -0.2182562695
C      -1.6904485012     0.1157546232    -0.0564453564
C      -0.0402826165    -1.5498809932    -0.7077595315
H       0.2605877547     1.7914922465    -0.6505024073
H       1.4650090332     0.5807157378    -1.1091590022
H      -0.0081076513     0.7696137195    -2.0797726695
H      -1.7975984087     1.1105384704     0.3732292022
H      -2.1468942988    -0.6032398924     0.6209347707
H      -2.2010758230     0.0775859498    -1.0193390468
H      -0.5147753472    -2.2676184545    -0.0417857839
H       1.0292179705    -1.7511485763    -0.7281429253
H      -0.4472275332    -1.6642841554    -1.7130908739
H       0.1979029907    -0.1032630503     0.7669210246
F      -0.2049239784     2.2631655059     1.6837926597
H       0.3162609252     1.5075191366     2.0082042754
F       0.8911804794     0.1499775762     1.9963623421
H       2.1080430621    -0.3520613475     1.3409738870
F       2.6515972363    -0.6826682298     0.6039167713
19
-29.654441
C       0.3993764828     0.7994847220    -1.0701950820
N      -0.2685497755    -0.1891272765    -0.2184896185
C      -1.6914393444     0.1147806361    -0.0579426670
C      -0.0391407473    -1.5497037284    -0.7065242859
H       0.2616274024     1.7926514590    -0.6479566643
H       1.4642399814     0.5800534409    -1.1104623351
H      -0.0114119132     0.7734041421    -2.0791228848
H      -1.7994798968     1.1101669725     0.3697856236
H      -2.1467955656    -0.6041042404     0.6207667157
H      -2.2015887840     0.0754979982    -1.0211765475
H      -0.5103033641    -2.2674363718    -0.0377533323
H       1.0309591399    -1.7485991063    -0.7290160773
H      -0.4479989728    -1.6664325528    -1.7109650916
H       0.1970839856    -0.1010019852     0.7668531810
F      -0.2007957750     2.2646684333     1.6818788774
H       0.3159441658     1.5081253159     2.0099849233
F       0.8903294582     0.1500899716     1.9959401330
H       2.1070373091    -0.3542037093     1.3399480357
F       2.6509062134    -0.6883141210     0.6044470966
19
-29.654447
C       0.3997580471     0.8001976170    -1.0706223454
N      -0.2682038262    -0.1884349313    -0.2186935846
C      -1.6914228064     0.1144179468    -0.0592334736
C      -0.0387355262    -1.5495922739    -0.7051733003
H       0.2632143690     1.7929513662    -0.6466437240
H       1.4642959437     0.5785817886    -1.1114404310
H      -0.0133743643     0.7756201015    -2.0789742370
H      -1.8003698474     1.1103638266     0.3663152620
H      -2.1469897746    -0.6037150978     0.6201530161
H      -2.2013459611     0.0747415216    -1.0223780813
H      -0.5079487245    -2.2670735012    -0.0344676448
H       1.0313916435    -1.7473644103    -0.7297877150
H      -0.4495001889    -1.6688995419    -1.7084585552
H       0.1968994150    -0.0991363836     0.7669383860
F      -0.2000075708     2.2648151281     1.6827693023
H       0.3137261901     1.5074958175     2.0131392146
F       0.8906150166     0.1505810314     1.9956630519
H       2.1070827570    -0.3544451394     1.3376290889
F       2.6509152084    -0.6911048658     0.6032657704
19
-29.654452
C       0.4006175333     0.8000511897    -1.0714436765
N      -0.2674359900    -0.1878764996    -0.2187206260
C      -1.6904388678     0.1148914298    -0.0600308406
C      -0.0390660376    -1.5495710064    -0.7039121866
H       0.2650498346     1.7927460088    -0.6470242151
H       1.4648824684     0.5770864971    -1.1123380161
H      -0.0140681093     0.7761866091    -2.0791833947
H      -1.8002252836     1.1112448432     0.3635749814
H      -2.1469411710    -0.6024496237     0.6194182226
H      -2.2004314140     0.0751221993    -1.0229243994
H      -0.5075220251    -2.2662735999    -0.0321316224
H       1.0308643985    -1.7473588671    -0.7304138373
H      -0.4515911591    -1.6712033809    -1.7060470302
H       0.1976139975    -0.0979814098     0.7669894185
F      -0.2027319297     2.2633748253     1.6855471066
H       0.3100052031     1.5057582272     2.0167501258
F       0.8921993398     0.1514077262     1.9957924859
H       2.1080520246    -0.3531774186     1.3349220634
F       2.6511671873    -0.6919777497     0.6011754409
19
-29.654455
C       0.4014158451     0.7994972066    -1.0720830045
N      -0.2666536262    -0.1875279569    -0.2186718884
C      -1.6893561556     0.1158106778    -0.0602476466
C      -0.0396229284    -1.5495315165    -0.7031211538
H       0.2665673706     1.7924577319    -0.6484164824
H       1.4655265049     0.5762511862    -1.1130365381
H      -0.0138257406     0.7757854510    -2.0795310641
H      -1.7995539228     1.1124667025     0.3622818385
H      -2.1465501639    -0.6011786606     0.6188423666
H      -2.1994045776     0.0759447734    -1.0229356313
H      -0.5083487575    -2.2653395617    -0.0307990997
H       1.0299869570    -1.7479685300    -0.7306830872
H      -0.4535131334    -1.6727103933    -1.7043728831
H       0.1988086144    -0.0976528898     0.7669307383
F      -0.2068578344     2.2611545837     1.6881900787
H       0.3065040421     1.5035428640     2.0190803270
F       0.8943817485     0.1520914848     1.9962650736
H       2.1091429817    -0.3515327681     1.3330215157
F       2.6513527760    -0.6915603849     0.5992865408
19
-29.654457
C       0.4018935094     0.7990913330    -1.0724838426
N      -0.2662081264    -0.1873139138    -0.2185517639
C      -1.6886573531     0.1166986466    -0.0601444953
C      -0.0401524698    -1.5495582705    -0.7026956546
H       0.2675090669     1.7923969973    -0.6497766913
H       1.4659688096     0.5761317396    -1.1134803399
H      -0.0132302665     0.7753394577    -2.0797760185
H      -1.7989528103     1.1135365802     0.3620712966
H      -2.1460290755    -0.6004982332     0.6184778654
H      -2.1987640207     0.0765618100    -1.0228033371
H      -0.5094373120    -2.2644917608    -0.0301146730
H       1.0293208792    -1.7486050302    -0.7306221349
H      -0.4548898458    -1.6734252850    -1.7034884750
H       0.1998794649    -0.0978176822     0.7667571379
F      -0.2101730394     2.2591981761     1.6895811971
H       0.3041252167     1.5016447328     2.0198337913
F       0.8962400861     0.1523492150     1.9968491882
H       2.1099252564    -0.3504108557     1.3321299733
F       2.6516320304    -0.6908276570     0.5982369762
19
-29.654458
C       0.4020579097     0.7990236781    -1.0725564662
N      -0.2660698851    -0.1871480148    -0.2185090206
C      -1.6885119046     0.1172428843    -0.0600832887
C      -0.0404662440    -1.5495568021    -0.7024699646
H       0.2679608561     1.7925715243    -0.6504974624
H       1.4661224471     0.5764379403    -1.1138199810
H      -0.0127530413     0.7753600885    -2.0799066660
H      -1.7987742106     1.1141992219     0.3622009781
H      -2.1456574872    -0.6004069687     0.6181913610
H      -2.1985420975     0.0766335578    -1.0228325827
H      -0.5101780478    -2.2638762323    -0.0295455173
H       1.0289757836    -1.7489431692    -0.7304283062
H      -0.4557612754    -1.6736956049    -1.7030125667
H       0.2005419180    -0.0980265182     0.7665792204
F      -0.2117018956     2.2580767839     1.6898432531
H       0.3029677935     1.5003427319     2.0195830390
F       0.8973735046     0.1521846824     1.9972778416
H       2.1102923991    -0.3501272882     1.3319727786
F       2.6521234772    -0.6902924952     0.5980133505
19
-29.654459
C       0.4021187335     0.7992723146    -1.0725682240
N      -0.2661189858    -0.1869143430    -0.2185204813
C      -1.6886646535     0.1175889851    -0.0602083172
C      -0.0407442846    -1.5495792452    -0.7021647812
H       0.2682848955     1.7929437719    -0.6506954558
H       1.4661904761     0.5769177331    -1.1142353314
H      -0.0123370260     0.7758249387    -2.0799837398
H      -1.7989182167     1.1146250456     0.3622636742
H      -2.1454155911    -0.6005763093     0.6178439456
H      -2.1985827437     0.0762909983    -1.0231165693
H      -0.5106207794    -2.2632863858    -0.0286792096
H       1.0287551051    -1.7491594666    -0.7301720656
H      -0.4565657300    -1.6738964789    -1.7025298285
H       0.2008726128    -0.0981294654     0.7663811098
F      -0.2122538609     2.2574039827     1.6896872738
H       0.3023259868     1.4993283496     2.0189873863
F       0.8980222256     0.1516924356     1.9974988815
H       2.1105729742    -0.3504309820     1.3320074618
F       2.6530788620    -0.6899158788     0.5982042706
19
-29.654461
C       0.4022021596     0.7998328637    -1.0725862793
N      -0.2662027188    -0.1864934902    -0.2186786463
C      -1.6890004054     0.1178178587    -0.0607074091
C      -0.0410538897    -1.5495484268    -0.7016209365
H       0.2687064775     1.7935089832    -0.6504558615
H       1.4662388708     0.5774967040    -1.1150459828
H      -0.0120394528     0.7767702825    -2.0801235472
H      -1.7993982987     1.1149017880     0.3618867672
H      -2.1453019311    -0.6007417150     0.6173210238
H      -2.1987006272     0.0754855103    -1.0238107205
H      -0.5107186694    -2.2625546100    -0.0270421662
H       1.0284789826    -1.7493446801    -0.7299779426
H      -0.4576854466    -1.6742768723    -1.7016407725
H       0.2009668405    -0.0979224805     0.7661869883
F      -0.2123744056     2.2569040806     1.6897434993
H       0.3018471716     1.4983634543     2.0184786993
F       0.8983796184     0.1509106807     1.9973551873
H       2.1109411674    -0.3513534451     1.3320463749
F       2.6547145568    -0.6897564860     0.5986717243
19
-29.654463
C       0.4024666741     0.8006355111    -1.0728632547
N      -0.2662171898    -0.1858333807    -0.2190081890
C      -1.6892957827     0.1180141031    -0.0616826492
C      -0.0415302047    -1.5494876328    -0.7006969503
H       0.2694474858     1.7941890841    -0.6499494672
H       1.4664509639     0.5779946312    -1.1163526667
H      -0.0118320817     0.7780104587    -2.0804094179
H      -1.8001009382     1.1151128852     0.3608143489
H      -2.1452779432    -0.6005592646     0.6166119520
H      -2.1987415020     0.0744071703    -1.0249572215
H      -0.5104974572    -2.2615434928    -0.0244316411
H       1.0279449548    -1.7497123337    -0.7299310680
H      -0.4593761113    -1.6750375557    -1.7001542860
H       0.2007996152    -0.0973120475     0.7659910874
F      -0.2128605150     2.2562026066     1.6907640182
H       0.3012907260     1.4973925170     2.0186092241
F       0.8984953610     0.1499150441     1.9966747997
H       2.1116706620    -0.3526656763     1.3318103871
F       2.6571632829    -0.6897226275     0.5991609941
19
-29.654465
C       0.4029026536     0.8013487089    -1.0734072341
N      -0.2660265543    -0.1850646002    -0.2194854422
C      -1.6893092096     0.1181948548    -0.0629107779
C      -0.0420901998    -1.5493437659    -0.6996540212
H       0.2703742752     1.7947085637    -0.6495847264
H       1.4668134391     0.5782507055    -1.1179073586
H      -0.0118710385     0.7790590877    -2.0808742125
H      -1.8008001861     1.1152677216     0.3591282610
H      -2.1453069151    -0.5998612978     0.6159279321
H      -2.1984735473     0.0734730148    -1.0262725293
H      -0.5100672138    -2.2603922862    -0.0214506738
H       1.0271544299    -1.7502587183    -0.7301641314
H      -0.4613796242    -1.6760681002    -1.6983213769
H       0.2005391939    -0.0963581922     0.7658481287
F      -0.2141396112     2.2551310782     1.6929810566
H       0.3007547234     1.4965556909     2.0196782475
F       0.8984931248     0.1490459976     1.9955551237
H       2.1126984840    -0.3538705397     1.3314141918
F       2.6597337760    -0.6898179232     0.5994995428
19
-29.654466
C       0.4033715152     0.8016467279    -1.0740940244
N      -0.2657310487    -0.1844904390    -0.2198978179
C      -1.6890188839     0.1183976610    -0.0638677144
C      -0.0426110351    -1.5492030430    -0.6988466674
H       0.2712123122     1.7948664328    -0.6496831958
H       1.4672604253     0.5781975192    -1.1189748023
H      -0.0120343854     0.7794921428    -2.0813336534
H      -1.8012119889     1.1154789202     0.3575218219
H      -2.1453031909    -0.5989080005     0.6155059549
H      -2.1979485268     0.0731843175    -1.0272354608
H      -0.5098116856    -2.2593830956    -0.0192206892
H       1.0263373175    -1.7508758990    -0.7304893511
H      -0.4630748937    -1.6770053477    -1.6968504866
H       0.2003522442    -0.0955140451     0.7657407734
F      -0.2160695450     2.2537143109     1.6955101364
H       0.3004118744     1.4959283906     2.0211796020
F       0.8985113909     0.1484777385     1.9945384952
H       2.1138018535    -0.3543055654     1.3310172047
F       2.6615562506    -0.6896987261     0.5994798747
19
-29.654467
C       0.4036762326     0.8015952010    -1.0746186019
N      -0.2654758113    -0.1841510117    -0.2201577849
C      -1.6886701907     0.1186137941    -0.0643745049
C      -0.0429738701    -1.5490724654    -0.6984306851
H       0.2717195064     1.7947615189    -0.6501341359
H       1.4675787619     0.5780633933    -1.1193873748
H      -0.0122810959     0.7795324136    -2.0816709378
H      -1.8014448442     1.1157577696     0.3563553669
H      -2.1452824223    -0.5981348578     0.6153273474
H      -2.1973306195     0.0733643522    -1.0277853985
H      -0.5098278004    -2.2586132412    -0.0179828386
H       1.0257349400    -1.7513209285    -0.7307519647
H      -0.4642274919    -1.6776054113    -1.6959402689
H       0.2003831280    -0.0949295152     0.7656421860
F      -0.2178383202     2.2522258339     1.6973295808
H       0.3003940377     1.4953781067     2.0223380940
F       0.8986421257     0.1480672723     1.9939392456
H       2.1147230302    -0.3541785224     1.3309527581
F       2.6625007040    -0.6893537022     0.5993499172
19
-29.654468
C       0.4038193917     0.8014072590    -1.0749614042
N      -0.2653814246    -0.1839787717    -0.2202766312
C      -1.6884751571     0.1188521085    -0.0645911602
C      -0.0432503922    -1.5489789358    -0.6981959877
H       0.2719853983     1.7945899756    -0.6506546267
H       1.4677616019     0.5779338143    -1.1192225875
H      -0.0124682872     0.7795353895    -2.0818457001
H      -1.8016760097     1.1161499123     0.3555720794
H      -2.1452828110    -0.5976646705     0.6152077780
H      -2.1967867530     0.0737588560    -1.0281227632
H      -0.5101033244    -2.2579717322    -0.0173220292
H       1.0253384671    -1.7515862123    -0.7308196898
H      -0.4650292967    -1.6779594562    -1.6954297996
H       0.2005211487    -0.0945742264     0.7655154546
F      -0.2191243032     2.2507268357     1.6981904833
H       0.3006414197     1.4947391803     2.0228859711
F       0.8987916244     0.1474717975     1.9937242185
H       2.1155951979    -0.3538020772     1.3311426766
F       2.6631235093    -0.6886490465     0.5992037181
19
-29.654469
C       0.4037444564     0.8012721573    -1.0750285243
N      -0.2654855397    -0.1838590880    -0.2202865806
C      -1.6885377043     0.1190671545    -0.0646635222
C      -0.0434276933    -1.5489043527    -0.6980933485
H       0.2719440427     1.7944793863    -0.6510119273
H       1.4677152272     0.5779041999    -1.1187141484
H      -0.0126183630     0.7797189246    -2.0818845679
H      -1.8020436378     1.1165447266     0.3550716822
H      -2.1453764419    -0.5975673011     0.6150447587
H      -2.1964239335     0.0740639831    -1.0284209921
H      -0.5104830396    -2.2574651812    -0.0169776801
H       1.0251734159    -1.7515817515    -0.7307261722
H      -0.4655370697    -1.6780794374    -1.6951540029
H       0.2007261213    -0.0943180056     0.7653767845
F      -0.2194793309     2.2494868302     1.6980028745
H       0.3011339162     1.4940115808     2.0227291233
F       0.8988709541     0.1466177469     1.9937884084
H       2.1163858583    -0.3535909823     1.3316649243
F       2.6637187617    -0.6878005904     0.5992829106
19
-29.654469
C       0.4035498809     0.8012703274    -1.0748953211
N      -0.2657602274    -0.1837977350    -0.2202218559
C      -1.6888515634     0.1192263552    -0.0647394972
C      -0.0435402649    -1.5488563874    -0.6979808302
H       0.2717304481     1.7945052506    -0.6510290331
H       1.4675066266     0.5778710090    -1.1180720669
H      -0.0126323842     0.7800475336    -2.0817986051
H      -1.8024683204     1.1168734180     0.3548010296
H      -2.1455797351    -0.5976957550     0.6147818311
H      -2.1963513274     0.0741806277    -1.0287242019
H      -0.5108186180    -2.2571813400    -0.0167900965
H       1.0251717217    -1.7513805840    -0.7305035845
H      -0.4657724146    -1.6780796942    -1.6950414342
H       0.2008244923    -0.0941592457     0.7652816719
F      -0.2189733011     2.2487263738     1.6971269576
H       0.3016705630     1.4933350716     2.0221380445
F       0.8987953605     0.1456259791     1.9940010266
H       2.1170785357    -0.3536110452     1.3322009485
F       2.6644205278    -0.6869001596     0.5994650168
19
-29.654469
C       0.4032980326     0.8013814505    -1.0746527384
N      -0.2660871141    -0.1837054898    -0.2201294729
C      -1.6892366757     0.1193570119    -0.0648954344
C      -0.0436150940    -1.5488177471    -0.6978731102
H       0.2714085134     1.7946198427    -0.6508415901
H       1.4671986539     0.5777892710    -1.1175619956
H      -0.0125872747     0.7803456883    -2.0816974589
H      -1.8028590083     1.1170922566     0.3545894171
H      -2.1458752064    -0.5978153988     0.6144621322
H      -2.1964628881     0.0741262302    -1.0290753210
H      -0.5109977519    -2.2570985936    -0.0166470852
H       1.0252237793    -1.7510621543    -0.7303061989
H      -0.4658411748    -1.6780352720    -1.6949387835
H       0.2008330662    -0.0939998628     0.7652548037
F      -0.2180195698     2.2483273283     1.6961443559
H       0.3021310017     1.4927441517     2.0215328477
F       0.8986593357     0.1447253276     1.9942137301
H       2.1176647484    -0.3538303101     1.3326962165
F       2.6651646267    -0.6861437303     0.5997256858
19
-29.654470
C       0.4030804038     0.8015179757    -1.0744247066
N      -0.2664393940    -0.1836080514    -0.2200348717
C      -1.6896490845     0.1195389053    -0.0652019038
C      -0.0437329172    -1.5487599514    -0.6976631799
H       0.2711105513     1.7947896936    -0.6505850827
H       1.4668721010     0.5775306003    -1.1171360641
H      -0.0124481070     0.7804831202    -2.0816065737
H      -1.8031667191     1.1173344987     0.3542879582
H      -2.1462688169    -0.5977065423     0.6140567734
H      -2.1966830274     0.0740713714    -1.0295077831
H      -0.5110633563    -2.2571408577    -0.0164452278
H       1.0252085933    -1.7507101491    -0.7301325204
H      -0.4658845492    -1.6780755637    -1.6947819426
H       0.2006991217    -0.0938466949     0.7653052573
F      -0.2170569579     2.2479219876     1.6953956370
H       0.3024932684     1.4921087731     2.0211743012
F       0.8985308253     0.1438326615     1.9944010354
H       2.1183464418    -0.3540093857     1.3330250119
F       2.6660516227    -0.6852723912     0.5998738820
19
-29.654470
C       0.4028932438     0.8016307526    -1.0742602707
N      -0.2667728376    -0.1834374148    -0.2199472734
C      -1.6899823999     0.1198256474    -0.0656376660
C      -0.0439019063    -1.5486749280    -0.6974256185
H       0.2708195998     1.7949588108    -0.6504684769
H       1.4665560320     0.5771245003    -1.1168755265
H      -0.0122856889     0.7803195153    -2.0816019360
H      -1.8033463914     1.1176289850     0.3538224780
H      -2.1467561426    -0.5972518807     0.6136317175
H      -2.1969324112     0.0740995025    -1.0300182380
H      -0.5109929467    -2.2572536465    -0.0161902520
H       1.0250849312    -1.7503238363    -0.7300498402
H      -0.4659503026    -1.6782060526    -1.6945186273
H       0.2004699663    -0.0936806301     0.7654243178
F      -0.2163465135     2.2472953582     1.6951049718
H       0.3027563621     1.4913577356     2.0212273886
F       0.8985376311     0.1430282424     1.9945364857
H       2.1191333067    -0.3540768022     1.3332859843
F       2.6670164677    -0.6843638590     0.5999603818
19
-29.654471
C       0.4028306183     0.8016254789    -1.0742728606
N      -0.2670172114    -0.1832860215    -0.2199037530
C      -1.6901871684     0.1201953084    -0.0660991867
C      -0.0441029925    -1.5485498703    -0.6971573908
H       0.2706782690     1.7950762980    -0.6506237851
H       1.4663753740     0.5766515518    -1.1167791856
H      -0.0121133467     0.7798294449    -2.0816880257
H      -1.8033329744     1.1180174567     0.3532673125
H      -2.1472425321    -0.5964656393     0.6133007855
H      -2.1971492054     0.0743249682    -1.0304569191
H      -0.5108073909    -2.2573641322    -0.0159076440
H       1.0248619074    -1.7499897525    -0.7300325858
H      -0.4660668804    -1.6784568833    -1.6942310003
H       0.2001282557    -0.0936095233     0.7655894267
F      -0.2162576681     2.2463989983     1.6954186341
H       0.3028583755     1.4905805020     2.0217438579
F       0.8987319494     0.1424135567     1.9945989886
H       2.1199159788    -0.3538903900     1.3333515843
F       2.6678966421    -0.6835013513     0.5998817471
19
-29.654471
C       0.4028251615     0.8015203340    -1.0744259973
N      -0.2671708293    -0.1831185871    -0.2198944145
C      -1.6902496083     0.1205972926    -0.0664339417
C      -0.0442594344    -1.5484192282    -0.6969901785
H       0.2706100715     1.7951078428    -0.6510984395
H       1.4663325047     0.5763286041    -1.1168532845
H      -0.0120232205     0.7791442859    -2.0818758313
H      -1.8031911318     1.1184469838     0.3527372772
H      -2.1476819173    -0.5955624914     0.6131722607
H      -2.1973007893     0.0746941745    -1.0307391217
H      -0.5105187979    -2.2574043610    -0.0156573516
H       1.0246570069    -1.7496657249    -0.7300686806
H      -0.4661942024    -1.6787068027    -1.6939666055
H       0.1997748706    -0.0936281560     0.7657374400
F      -0.2166630919     2.2453731774     1.6960739211
H       0.3028307497     1.4898429966     2.0224714183
F       0.8991038666     0.1420348143     1.9945797750
H       2.1205337116    -0.3536255680     1.3333927307
F       2.6685850800    -0.6829595866     0.5998390239
19
-29.654471
C       0.4028633724     0.8013215451    -1.0746970807
N      -0.2673110520    -0.1829935789    -0.2199175359
C      -1.6903207288     0.1210355745    -0.0666517426
C      -0.0443562416    -1.5482621984    -0.6968384746
H       0.2706128127     1.7950902227    -0.6518083104
H       1.4663945999     0.5761773102    -1.1169724112
H      -0.0119785306     0.7783821833    -2.0821196746
H      -1.8030094681     1.1189977052     0.3522273537
H      -2.1481490071    -0.5945992586     0.6131968843
H      -2.1974501086     0.0751960975    -1.0308833497
H      -0.5101249842    -2.2573609242    -0.0153658530
H       1.0245404252    -1.7492702378    -0.7300646877
H      -0.4663336987    -1.6789591322    -1.6937456475
H       0.1993464898    -0.0937483220     0.7658667629
F      -0.2173480784     2.2442516186     1.6968302243
H       0.3027009365     1.4890712713     2.0232268117
F       0.8995709218     0.1416750367     1.9944862168
H       2.1210659925    -0.3533826218     1.3333863357
F       2.6692863473    -0.6826222912     0.5998441784
19
-29.654472
C       0.4028476189     0.8010977892    -1.0749987256
N      -0.2674993936    -0.1828566769    -0.2199429957
C      -1.6904583800     0.1214873963    -0.0667217477
C      -0.0443489130    -1.5481209420    -0.6967501261
H       0.2705660326     1.7950369388    -0.6526640817
H       1.4664900779     0.5762833801    -1.1170986221
H      -0.0120061449     0.7776786893    -2.0824116668
H      -1.8028910280     1.1196319703     0.3517661325
H      -2.1486881493    -0.5937202721     0.6133588119
H      -2.1976286641     0.0757192236    -1.0309283874
H      -0.5096271563    -2.2572370734    -0.0150249768
H       1.0246077054    -1.7487228057    -0.7300008802
H      -0.4664442666    -1.6791213838    -1.6935509028
H       0.1989049891    -0.0938910493     0.7659441628
F      -0.2179596226     2.2432170782     1.6974191932
H       0.3024993198     1.4882609539     2.0237767633
F       0.9000300571     0.1412495182     1.9943016246
H       2.1215006592    -0.3534013486     1.3334570670
F       2.6701052583    -0.6825913861     0.6000693576
19
-29.654472
C       0.4027817750     0.8009402009    -1.0752038282
N      -0.2677083415    -0.1827985013    -0.2199624631
C      -1.6907015216     0.1217961797    -0.0666868629
C      -0.0442452709    -1.5480306152    -0.6966613415
H       0.2704870431     1.7950019550    -0.6532596125
H       1.4665380927     0.5765438779    -1.1171151524
H      -0.0120519715     0.7773290778    -2.0826195578
H      -1.8029262430     1.1201600784     0.3514714480
H      -2.1491609218    -0.5932189573     0.6135206381
H      -2.1978086485     0.0760433665    -1.0309153766
H      -0.5091986294    -2.2571110994    -0.0146905086
H       1.0248503083    -1.7481912811    -0.7298684101
H      -0.4664897188    -1.6791666961    -1.6934317743
H       0.1985744402    -0.0939668096     0.7659584396
F      -0.2181265273     2.2427001711     1.6976050412
H       0.3023030045     1.4876682321     2.0238870462
F       0.9002198621     0.1407785167     1.9940835141
H       2.1217637397    -0.3537206739     1.3335001669
F       2.6708995288    -0.6827570222     0.6003885938
19
-29.654472
C       0.4026778003     0.8009153734    -1.0752485449
N      -0.2678475218    -0.1827675702    -0.2199569695
C      -1.6908824462     0.1219006362    -0.0666272921
C      -0.0441256515    -1.5480303654    -0.6966185210
H       0.2703687464     1.7949990628    -0.6534418572
H       1.4665048786     0.5767653998    -1.1170674944
H      -0.0120891568     0.7773149800    -2.0827111092
H      -1.8030463127     1.1203830259     0.3513799694
H      -2.1494025305    -0.5931339236     0.6135954395
H      -2.1979105715     0.0760753455    -1.0309124527
H      -0.5089892277    -2.2570610191    -0.0144975436
H       1.0250963572    -1.7478869448    -0.7297772231
H      -0.4664630140    -1.6791106593    -1.6933682855
H       0.1984925491    -0.0939072690     0.7659207476
F      -0.2178955573     2.2427443382     1.6975225458
H       0.3021961794     1.4874441925     2.0236962002
F       0.9001303242     0.1404763070     1.9939305600
H       2.1218211640    -0.3541218137     1.3335190193
F       2.6713639907    -0.6829990961     0.6006628114
19
-29.654472
C       0.4026105131     0.8009315308    -1.0752540079
N      -0.2679073757    -0.1827648663    -0.2199539140
C      -1.6909800757     0.1219262765    -0.0666204053
C      -0.0440496904    -1.5480428835    -0.6965539697
H       0.2702855424     1.7950214206    -0.6534533523
H       1.4664476502     0.5768518356    -1.1170113305
H      -0.0120910734     0.7773586046    -2.0827513090
H      -1.8031389644     1.1204617749     0.3513440312
H      -2.1494918729    -0.5931329511     0.6135965222
H      -2.1979456269     0.0760128908    -1.0309352709
H      -0.5089057663    -2.2570676297    -0.0143808181
H       1.0252425172    -1.7477647802    -0.7297392134
H      -0.4664307240    -1.6790819207    -1.6933145230
H       0.1985186712    -0.0937978698     0.7658846018
F      -0.2176724782     2.2429119094     1.6975199142
H       0.3021500512     1.4873820921     2.0235425364
F       0.8999678711     0.1403038180     1.9938510570
H       2.1218076324    -0.3543621506     1.3334513623
F       2.6715831991    -0.6831471014     0.6007780890
19
-29.654472
C       0.4025407797     0.8009553628    -1.0752896749
N      -0.2679390304    -0.1827300193    -0.2199534649
C      -1.6910226035     0.1219738847    -0.0666432497
C      -0.0439823482    -1.5480570828    -0.6964718008
H       0.2701762700     1.7950579109    -0.6535222365
H       1.4663816464     0.5768971381    -1.1169737329
H      -0.0120790194     0.7773195261    -2.0828316046
H      -1.8032010784     1.1205378226     0.3512829101
H      -2.1495456650    -0.5930592160     0.6135943172
H      -2.1979525923     0.0759445031    -1.0309792146
H      -0.5088195014    -2.2570887987    -0.0142553168
H       1.0253568579    -1.7476735317    -0.7297324849
H      -0.4663944801    -1.6790840604    -1.6932166095
H       0.1985951231    -0.0936371449     0.7658357833
F      -0.2175352145     2.2430317369     1.6977067405
H       0.3021167310     1.4872973341     2.0234714743
F       0.8997974952     0.1401500120     1.9937902211
H       2.1217628107    -0.3545247643     1.3333292091
F       2.6717438194    -0.6833106133     0.6008587345
19
-29.654472
C       0.4024796626     0.8009668104    -1.0754021473
N      -0.2679432652    -0.1826644911    -0.2199699010
C      -1.6910233944     0.1220781398    -0.0667019670
C      -0.0439185140    -1.5480410612    -0.6963386624
H       0.2700306262     1.7951216674    -0.6537466870
H       1.4663160751     0.5769188663    -1.1169565884
H      -0.0120452866     0.7771299344    -2.0829851962
H      -1.8032195704     1.1206724461     0.3511613007
H      -2.1495815852    -0.5928362299     0.6136098495
H      -2.1979355788     0.0759101733    -1.0310373970
H      -0.5086833677    -2.2571046572    -0.0140785688
H       1.0254441360    -1.7475765044    -0.7297394275
H      -0.4663600057    -1.6791518983    -1.6930577975
H       0.1986949599    -0.0934321390     0.7657726233
F      -0.2175593345     2.2430028206     1.6981734640
H       0.3021012078     1.4871147778     2.0235277248
F       0.8996484706     0.1399617617     1.9937525373
H       2.1216812022    -0.3545759511     1.3331201138
F       2.6718735619    -0.6834944656     0.6008967267
19
-29.654472
C       0.4024434673     0.8009669310    -1.0755630475
N      -0.2679199654    -0.1825663365    -0.2199969657
C      -1.6909700345     0.1222102225    -0.0667549854
C      -0.0438802591    -1.5479956660    -0.6962238040
H       0.2698678451     1.7951945681    -0.6541050323
H       1.4662892300     0.5769452529    -1.1169722498
H      -0.0119999721     0.7768319080    -2.0831746540
H      -1.8031769439     1.1208234502     0.3510314701
H      -2.1495777740    -0.5925457468     0.6136656397
H      -2.1979023677     0.0759377604    -1.0310747741
H      -0.5085363552    -2.2570841190    -0.0139194616
H       1.0254702467    -1.7474954924    -0.7297391907
H      -0.4663326140    -1.6792576478    -1.6928979928
H       0.1987757557    -0.0932713485     0.7657101421
F      -0.2177548578     2.2427788701     1.6987296809
H       0.3021272019     1.4868696494     2.0236888798
F       0.8996068077     0.1397990341     1.9937704803
H       2.1215713889    -0.3544894186     1.3329295749
F       2.6718992004    -0.6836518710     0.6008962901
19
-29.654472
C       0.4024398644     0.8009652436    -1.0756969263
N      -0.2678889664    -0.1824863242    -0.2200249416
C      -1.6909158475     0.1223045282    -0.0667779758
C      -0.0438702103    -1.5479312801    -0.6961562420
H       0.2697265267     1.7952596420    -0.6544310720
H       1.4662997690     0.5769916402    -1.1169898039
H      -0.0119526176     0.7765796667    -2.0833172049
H      -1.8031164861     1.1209317843     0.3509480452
H      -2.1495425167    -0.5923401242     0.6137326750
H      -2.1978719245     0.0759911240    -1.0310787166
H      -0.5084323993    -2.2570278384    -0.0138205823
H       1.0254503503    -1.7474459517    -0.7297033099
H      -0.4663149556    -1.6793512895    -1.6928039704
H       0.1988010555    -0.0932056862     0.7656728679
F      -0.2179533072     2.2425000801     1.6990889029
H       0.3021902270     1.4866609304     2.0238389829
F       0.8996513333     0.1396825950     1.9938339332
H       2.1214680825    -0.3543585145     1.3328266923
F       2.6718320223    -0.6837202258     0.6008586463
19
-29.654472
C       0.4024402188     0.8009781254    -1.0757948557
N      -0.2678660092    -0.1824116907    -0.2200461130
C      -1.6908759341     0.1223624663    -0.0667754003
C      -0.0438675919    -1.5478655802    -0.6961201566
H       0.2695626273     1.7953245877    -0.6547117507
H       1.4663258215     0.5770774943    -1.1169858071
H      -0.0118939605     0.7763850712    -2.0834263026
H      -1.8030670325     1.1210012800     0.3509015613
H      -2.1494919528    -0.5922308260     0.6138006554
H      -2.1978482010     0.0760328820    -1.0310673348
H      -0.5083629929    -2.2569428831    -0.0137501595
H       1.0254239374    -1.7474070595    -0.7296204309
H      -0.4662913054    -1.6794174178    -1.6927511589
H       0.1987933757    -0.0931824231     0.7656503477
F      -0.2180558946     2.2422472794     1.6992532784
H       0.3022747810     1.4864854021     2.0239377259
F       0.8997111544     0.1395665999     1.9939201524
H       2.1213666813    -0.3542692155     1.3327839238
F       2.6717222774    -0.6837340924     0.6008018251
19
-29.654472
C       0.4024300555     0.8010181024    -1.0759008447
N      -0.2678470982    -0.1823119549    -0.2200695012
C      -1.6908506835     0.1224108136    -0.0667623686
C      -0.0438551779    -1.5477692312    -0.6960671845
H       0.2692645603     1.7954300320    -0.6550708685
H       1.4663580596     0.5772572617    -1.1169344836
H      -0.0117844069     0.7761553885    -2.0835642190
H      -1.8030296297     1.1210725231     0.3508479707
H      -2.1494156020    -0.5921628096     0.6138836068
H      -2.1978195510     0.0760523877    -1.0310541766
H      -0.5082872661    -2.2567946026    -0.0136374535
H       1.0254076022    -1.7473447600    -0.7294391537
H      -0.4662411104    -1.6794857215    -1.6926923455
H       0.1987570375    -0.0931472540     0.7656331673
F      -0.2180276062     2.2419620273     1.6993207957
H       0.3024108458     1.4862561819     2.0240244015
F       0.8997570630     0.1393502692     1.9940515506
H       2.1212190747    -0.3542453628     1.3327453151
F       2.6715538332    -0.6837032910     0.6006857918
19
-29.654472
C       0.4023851641     0.8011053692    -1.0760283383
N      -0.2678389664    -0.1821611944    -0.2200927852
C      -1.6908471186     0.1224545913    -0.0667491536
C      -0.0438140355    -1.5476378457    -0.6959641180
H       0.2687185738     1.7956048979    -0.6555757311
H       1.4663889251     0.5776043873    -1.1167882349
H      -0.0115795725     0.7758368814    -2.0837733242
H      -1.8030236323     1.1211569791     0.3507585070
H      -2.1493067679    -0.5921362051     0.6139786477
H      -2.1977833484     0.0760187005    -1.0310556092
H      -0.5081997782    -2.2565490662    -0.0134233887
H       1.0254296740    -1.7472357098    -0.7290967121
H      -0.4661378826    -1.6795576636    -1.6925932671
H       0.1986835576    -0.0930531106     0.7656237200
F      -0.2177456722     2.2416571821     1.6992898880
H       0.3026142305     1.4859310222     2.0241186210
F       0.8997380620     0.1389391489     1.9942375211
H       2.1210019819    -0.3543740078     1.3326777872
F       2.6713166056    -0.6836043568     0.6004559703
19
-29.654472
C       0.4022892466     0.8012365610    -1.0761657366
N      -0.2678470022    -0.1819783237    -0.2201110492
C      -1.6908790304     0.1224869265    -0.0667636148
C      -0.0437280386    -1.5474962964    -0.6957820162
H       0.2679316625     1.7958392701    -0.6561795011
H       1.4663956441     0.5781301663    -1.1165215324
H      -0.0112801433     0.7754360565    -2.0840553531
H      -1.8030818171     1.1212474079     0.3506090136
H      -2.1491867328    -0.5921481670     0.6140469632
H      -2.1977480313     0.0758975949    -1.0310954953
H      -0.5081217677    -2.2562313147    -0.0130812259
H       1.0255239218    -1.7470796623    -0.7286127317
H      -0.4659751803    -1.6796210456    -1.6924307838
H       0.1985766217    -0.0928647256     0.7656341888
F      -0.2171208939     2.2414324171     1.6991818786
H       0.3028534957     1.4855486377     2.0242474825
F       0.8995964370     0.1383211238     1.9944358716
H       2.1207471961    -0.3547371676     1.3325568497
F       2.6710544118    -0.6834194589     0.6000867921
19
-29.654473
C       0.4021628406     0.8013616950    -1.0762813471
N      -0.2678666098    -0.1818247177    -0.2201183122
C      -1.6909286634     0.1225066740    -0.0668244287
C      -0.0436151754    -1.5474126690    -0.6955578037
H       0.2671766513     1.7960493156    -0.6566925581
H       1.4663704863     0.5786812368    -1.1162082928
H      -0.0109860292     0.7750502072    -2.0843385068
H      -1.8031985541     1.1213178405     0.3504275893
H      -2.1491024228    -0.5921615145     0.6140465696
H      -2.1977388724     0.0757201549    -1.0311725663
H      -0.5080964337    -2.2559621843    -0.0127039027
H       1.0256764757    -1.7469314929    -0.7281751747
H      -0.4657983615    -1.6796586114    -1.6922296034
H       0.1984754663    -0.0926268921     0.7656639433
F      -0.2163507498     2.2413826826     1.6990963256
H       0.3030357730     1.4852497123     2.0244294311
F       0.8993621122     0.1376974772     1.9945586798
H       2.1205574071    -0.3552397779     1.3324051518
F       2.6708646598    -0.6831991363     0.5996748061
19
-29.654473
C       0.4020601067     0.8014280053    -1.0763620505
N      -0.2678789220    -0.1817489873    -0.2201220593
C      -1.6909636063     0.1225211692    -0.0669122609
C      -0.0435191419    -1.5474056483    -0.6953696003
H       0.2667498186     1.7961627460    -0.6569796469
H       1.4663324275     0.5790675224    -1.1159794007
H      -0.0108166720     0.7747798740    -2.0845383679
H      -1.8033200219     1.1213537236     0.3502771221
H      -2.1490741256    -0.5921324648     0.6139918625
H      -2.1977691718     0.0755723370    -1.0312480396
H      -0.5081237834    -2.2558391096    -0.0124345764
H       1.0258179644    -1.7468456070    -0.7279698576
H      -0.4656697144    -1.6796787833    -1.6920535821
H       0.1984219903    -0.0924427154     0.7656926196
F      -0.2157988017     2.2414485109     1.6991211080
H       0.3031194488     1.4851242495     2.0246403292
F       0.8991668212     0.1373121858     1.9945784476
H       2.1204857326    -0.3556385525     1.3322924379
F       2.6707796509    -0.6830384557     0.5993755151
19
-29.654473
C       0.4020055500     0.8014436987    -1.0764255809
N      -0.2678769565    -0.1817227128    -0.2201309470
C      -1.6909700388     0.1225399683    -0.0669858756
C      -0.0434614434    -1.5474317219    -0.6952550751
H       0.2666333935     1.7962006662    -0.6571120701
H       1.4663131249     0.5792746589    -1.1158713303
H      -0.0107697671     0.7746171163    -2.0846526370
H      -1.8034018935     1.1213682411     0.3501917924
H      -2.1490720434    -0.5920661147     0.6139420627
H      -2.1978283629     0.0755011755    -1.0312866697
H      -0.5081619799    -2.2558245393    -0.0123075569
H       1.0259008063    -1.7468173753    -0.7279634065
H      -0.4655962336    -1.6797038530    -1.6919351242
H       0.1984146638    -0.0923566009     0.7656994714
F      -0.2155887084     2.2414848959     1.6992222769
H       0.3031549997     1.4851096872     2.0248303758
F       0.8990904280     0.1371742880     1.9945609873
H       2.1204794970    -0.3558186903     1.3322511181
F       2.6707349644    -0.6829727878     0.5992281885
