17
saved IRC frame 168; E=-24.403411 Eh
C   0.3535338497 -1.2779707730 -0.4856261031
N  -0.1155240382  0.0645425262 -0.1566736823
C  -1.4466824084  0.3359594013 -0.6866818801
C   0.8603819367  1.0675949283 -0.5652408831
H   1.3400228109 -1.4231060750 -0.0486896875
H  -0.3252861826 -2.0135714203 -0.0571699308
H   0.4142932759 -1.4316953516 -1.5666724419
H  -1.7276093025  1.3587354800 -0.4399186619
H  -2.1610532604 -0.3364025864 -0.2128381335
H  -1.4938410464  0.2042516315 -1.7709613548
H   0.4998961463  2.0626366720 -0.3129234283
H   1.0413201802  1.0190712413 -1.6438847478
H   1.7964797507  0.8965086759 -0.0380853986
H  -0.4128601138 -0.0749874829  1.0776987671
F   1.5316464498  0.1042434134  2.2841491810
H   0.6373231757 -0.1513920165  2.5216141794
F  -0.7920412235 -0.4044182643  2.1019042062
