17
saved IRC frame 192; E=-24.404393 Eh
C   0.4245449545 -1.2553410588 -0.4944023608
N   0.0489348223  0.1165386734 -0.1706348879
C  -1.3571728513  0.3539257918 -0.4690697196
C   0.9233519132  1.0972035080 -0.8014726034
H   1.4380270568 -1.4465590876 -0.1447199466
H  -0.2527237539 -1.9359910948  0.0187252484
H   0.3757761097 -1.4476576461 -1.5706498267
H  -1.6217836211  1.3782000548 -0.2142780079
H  -1.9701082388 -0.3187746205  0.1269543454
H  -1.5695250134  0.1868681596 -1.5305513022
H   0.5785051548  2.0984380183 -0.5469124674
H   0.9442806898  0.9944471531 -1.8905362819
H   1.9343318945  0.9759369244 -0.4134579457
H   0.4953084611  0.2132475672  1.0767550407
F   1.0258591745  0.1973929658  2.0298449490
H  -0.2680208896 -0.4414066412  2.5826476040
F  -1.1495858630 -0.7664686673  2.4117581627
