17
saved IRC frame 192; E=-24.404393 Eh
C   0.3487011317 -1.2797387194 -0.4911670991
N  -0.1206390410  0.0619921238 -0.1633869546
C  -1.4480243254  0.3344779503 -0.7001038099
C   0.8563603651  1.0658775904 -0.5636875928
H   1.3327582236 -1.4260553521 -0.0490122464
H  -0.3334024001 -2.0163138520 -0.0690536619
H   0.4169115774 -1.4344248720 -1.5724128522
H  -1.7318930238  1.3553279929 -0.4481626631
H  -2.1658258400 -0.3428162866 -0.2381783361
H  -1.4894058328  0.2116681262 -1.7865024107
H   0.4941477230  2.0587546399 -0.3047039097
H   1.0433691675  1.0272887240 -1.6422438882
H   1.7901527885  0.8906494676 -0.0337943335
H  -0.4417732765 -0.0881763153  1.1168150296
F   1.5632204776  0.1061389765  2.2958003402
H   0.6736350427 -0.1385057565  2.5424000488
F  -0.7882927575 -0.3861444378  2.1073943395
