17
saved IRC frame 96; E=-24.399785 Eh
C   0.4042208886 -1.2605863700 -0.4750843629
N   0.0198243796  0.1126773395 -0.1520519647
C  -1.3813859224  0.3497272905 -0.4873243638
C   0.9178020994  1.0981659768 -0.7478954133
H   1.4081835497 -1.4475255504 -0.0990645445
H  -0.2808242913 -1.9447565967  0.0221362972
H   0.3776146894 -1.4373056270 -1.5517503091
H  -1.6564042679  1.3762292256 -0.2559033026
H  -2.0114739491 -0.3157293767  0.0989270746
H  -1.5518864425  0.1664813719 -1.5513455239
H   0.5626041218  2.0988887868 -0.5083961532
H   0.9822472419  0.9863003565 -1.8311384573
H   1.9065274039  0.9763640573 -0.3078016896
H   0.3421396796  0.1933791962  0.9607194722
F   1.1039512815  0.1433602515  2.0364300155
H  -0.1083868815 -0.4012526691  2.5004588588
F  -1.0347535806 -0.6944176629  2.3490843665
