17
saved IRC frame 240; E=-24.405681 Eh
C   0.4330137211 -1.2534239993 -0.5044511804
N   0.0594245986  0.1181343939 -0.1798589686
C  -1.3489561355  0.3560953321 -0.4660288874
C   0.9259230731  1.0958247822 -0.8246939648
H   1.4515438132 -1.4416632964 -0.1675580860
H  -0.2370896607 -1.9334845026  0.0187698868
H   0.3721294524 -1.4520203436 -1.5796429923
H  -1.6093363973  1.3790322682 -0.2010576430
H  -1.9553434464 -0.3204036898  0.1323442361
H  -1.5755522407  0.1968368674 -1.5262311761
H   0.5905885069  2.0978294518 -0.5602658029
H   0.9256193305  0.9987133292 -1.9152858419
H   1.9444631836  0.9678315201 -0.4590615520
H   0.5274722013  0.2253571833  1.1159515707
F   1.0060487639  0.2170161608  2.0567145890
H  -0.3201102773 -0.4562062494  2.6218877057
F  -1.1898384868 -0.7954692079  2.4384681073
