17
saved IRC frame 336; E=-24.407022 Eh
C   0.4483485528 -1.2500817878 -0.5156911273
N   0.0807695998  0.1214966511 -0.1849076882
C  -1.3315409043  0.3599439220 -0.4529920924
C   0.9326306776  1.0937090221 -0.8562906977
H   1.4752364132 -1.4357127337 -0.2037397341
H  -0.2079655418 -1.9308686899  0.0237034012
H   0.3621758818 -1.4505754094 -1.5891074841
H  -1.5886306631  1.3807387287 -0.1764482795
H  -1.9306214238 -0.3221065160  0.1463854595
H  -1.5712342770  0.2099256734 -1.5118020480
H   0.6160069048  2.0979911600 -0.5779168145
H   0.8910379599  0.9999892575 -1.9468694158
H   1.9626961985  0.9545394588 -0.5297086412
H   0.5338107573  0.2382199381  1.1398086528
F   0.9527652653  0.2406101423  2.0980395265
H  -0.3842407338 -0.4684160304  2.6574591207
F  -1.2412446671 -0.8394027871  2.4800778622
