17
saved IRC frame 384; E=-24.407463 Eh
C   0.3182469552 -1.2929541458 -0.5137776564
N  -0.1589535727  0.0427274978 -0.1762741463
C  -1.4611191980  0.3219365962 -0.7659439250
C   0.8267314513  1.0533215513 -0.5379667202
H   1.2830523080 -1.4544242112 -0.0360620926
H  -0.3851682769 -2.0349746097 -0.1384940915
H   0.4313552923 -1.4268049701 -1.5950806998
H  -1.7742610337  1.3256686910 -0.4817848130
H  -2.1904913633 -0.3891240633 -0.3795618710
H  -1.4446664759  0.2536558088 -1.8591812714
H   0.4614859362  2.0380645742 -0.2524229159
H   1.0294918343  1.0506125618 -1.6149423420
H   1.7533579973  0.8591044650 -0.0022389671
H  -0.4821104059 -0.0828849538  1.1874670636
F   1.7122668660  0.0987675126  2.3687548870
H   0.8114841161 -0.0796363790  2.6146894698
F  -0.7307024301 -0.2830559257  2.1828200918
