17
saved IRC frame 499; E=-24.408205 Eh
C   0.4689993900 -1.2469936342 -0.5270761953
N   0.1092744416  0.1254661969 -0.1917778445
C  -1.3084017248  0.3650860576 -0.4307525361
C   0.9439852537  1.0917959678 -0.8919346682
H   1.5058886207 -1.4285307290 -0.2476818275
H  -0.1680330261 -1.9274738741  0.0352720497
H   0.3491368706 -1.4518689737 -1.5964908842
H  -1.5592132091  1.3842138312 -0.1421760241
H  -1.8962121061 -0.3211383342  0.1750784849
H  -1.5689102610  0.2226706103 -1.4855726064
H   0.6507206292  2.0984696262 -0.5973044452
H   0.8549004101  1.0028483676 -1.9803125675
H   1.9851161092  0.9388973122 -0.6103833437
H   0.5200150834  0.2519636883  1.1491783350
F   0.8650206302  0.2680600222  2.1359112857
H  -0.4556278960 -0.4790928306  2.6814177097
F  -1.2966592153 -0.8943733045  2.5246050778
