17
saved IRC frame 120; E=-24.40113 Eh
C   0.3642314387 -1.2738817429 -0.4769583643
N  -0.1017345643  0.0718210599 -0.1490903870
C  -1.4426896222  0.3387422748 -0.6603296062
C   0.8709171872  1.0728571949 -0.5756630444
H   1.3542404176 -1.4181264965 -0.0481793971
H  -0.3109898635 -2.0043605603 -0.0352957266
H   0.4114046144 -1.4280942933 -1.5570407917
H  -1.7196368544  1.3641438544 -0.4213648571
H  -2.1455648473 -0.3266361858 -0.1608051224
H  -1.5051212953  0.1905692999 -1.7400233146
H   0.5130432691  2.0715041202 -0.3353945131
H   1.0395140600  1.0054541058 -1.6541077969
H   1.8113998052  0.9094892521 -0.0538729057
H  -0.3502311070 -0.0395002362  1.0125323774
F   1.4617718443  0.0992337072  2.2584966609
H   0.5584876773 -0.1830759793  2.4884530395
F  -0.8090421599 -0.4501393749  2.1086437492
