17
saved IRC frame 312; E=-24.406759 Eh
C   0.4447281885 -1.2507881496 -0.5134424667
N   0.0757243881  0.1207312589 -0.1839326074
C  -1.3356706845  0.3590559321 -0.4564983526
C   0.9308679349  1.0941455166 -0.8495131520
H   1.4697345939 -1.4370092349 -0.1956662988
H  -0.2148676295 -1.9314379017  0.0221294156
H   0.3645333471 -1.4509216890 -1.5873550066
H  -1.5935417731  1.3802918463 -0.1823827413
H  -1.9364748063 -0.3218749101  0.1424280582
H  -1.5723581952  0.2072089325 -1.5157207439
H   0.6099059972  2.0979112467 -0.5742207097
H   0.8985943273  0.9997348087 -1.9402754615
H   1.9585138935  0.9575285780 -0.5141864293
H   0.5347291439  0.2356390806  1.1364662345
F   0.9668169277  0.2356809836  2.0896739993
H  -0.3707754342 -0.4662848884  2.6514003116
F  -1.2304602192 -0.8296114104  2.4710959507
