17
saved IRC frame 24; E=-24.39503 Eh
C   0.3836859380 -1.2674421195 -0.4680547575
N  -0.0676496860  0.0888118427 -0.1495977258
C  -1.4316085839  0.3407518421 -0.6103055677
C   0.8942385457  1.0860924155 -0.6148615310
H   1.3759966376 -1.4172747405 -0.0472012678
H  -0.2936030774 -1.9827401653 -0.0060436748
H   0.4120289775 -1.4255168260 -1.5460254779
H  -1.7105405325  1.3665248861 -0.3774903026
H  -2.1035456456 -0.3231522948 -0.0686273514
H  -1.5262277774  0.1715634022 -1.6825088388
H   0.5381033483  2.0881464890 -0.3871374919
H   1.0419988618  0.9931041095 -1.6919863981
H   1.8413423269  0.9346567797 -0.1007942174
H  -0.1772573588  0.0648044102  0.9303637204
F   1.3111140941  0.0880996213  2.1980552122
H   0.3602128905 -0.2566620261  2.4361809115
F  -0.8482889588 -0.5497676260  2.1860347587
