17
saved IRC frame 288; E=-24.406457 Eh
C   0.3319506222 -1.2866564900 -0.5062647650
N  -0.1409684438  0.0518997880 -0.1738849265
C  -1.4543657130  0.3280175609 -0.7402359398
C   0.8407195596  1.0595192348 -0.5531533108
H   1.3057742535 -1.4406553495 -0.0445636054
H  -0.3624047406 -2.0258165367 -0.1089770184
H   0.4250418993 -1.4327690661 -1.5877657155
H  -1.7536496618  1.3396654135 -0.4693715502
H  -2.1794392802 -0.3687587817 -0.3206523186
H  -1.4654149138  0.2364963168 -1.8315710159
H   0.4764168109  2.0472620446 -0.2771647326
H   1.0375162501  1.0440507650 -1.6311259231
H   1.7703336086  0.8726683834 -0.0199926463
H  -0.4806443529 -0.0938043269  1.1752731496
F   1.6535380252  0.1047006125  2.3384706136
H   0.7625675466 -0.1039465913  2.5961252335
F  -0.7669714700 -0.3318729771  2.1548544715
