17
saved IRC frame 312; E=-24.406758 Eh
C   0.3282402169 -1.2882592463 -0.5084711038
N  -0.1457929116  0.0494767546 -0.1744640635
C  -1.4560435206  0.3264229107 -0.7474803417
C   0.8369422424  1.0578453817 -0.5493655682
H   1.2997351132 -1.4442977311 -0.0425977696
H  -0.3685568745 -2.0282734319 -0.1171262173
H   0.4265997932 -1.4309565169 -1.5900143270
H  -1.7591185886  1.3359433575 -0.4729589391
H  -2.1824772532 -0.3743629531 -0.3371661926
H  -1.4593441331  0.2413243036 -1.8394806545
H   0.4725348198  2.0448108667 -0.2706794378
H   1.0349761081  1.0458373256 -1.6271730856
H   1.7659275460  0.8689416059 -0.0158426553
H  -0.4820964159 -0.0914336028  1.1799321801
F   1.6700252127  0.1033631617  2.3471188822
H   0.7766069260 -0.0972107670  2.6023589859
F  -0.7581582808 -0.3191714189  2.1634103081
