17
saved IRC frame 360; E=-24.407255 Eh
C   0.3213964616 -1.2914167097 -0.5121692261
N  -0.1547822382  0.0448879246 -0.1756281285
C  -1.4594383501  0.3233769721 -0.7602388783
C   0.8299537704  1.0547434529 -0.5417158265
H   1.2883804065 -1.4511889972 -0.0382886082
H  -0.3799200765 -2.0328557318 -0.1318143119
H   0.4297553530 -1.4279715928 -1.5936058562
H  -1.7694404176  1.3289394320 -0.4790878819
H  -2.1879897221 -0.3845274219 -0.3664758881
H  -1.4490151398  0.2498654867 -1.8531648712
H   0.4650763519  2.0402155913 -0.2582808070
H   1.0309726971  1.0490747838 -1.6190190429
H   1.7574392462  0.8621701920 -0.0068927267
H  -0.4825237598 -0.0858332799  1.1856749057
F   1.6991684270  0.1003655781  2.3621795828
H   0.8007624759 -0.0851138565  2.6113322673
F  -0.7397954856 -0.2947318240  2.1771952977
