17
saved IRC frame 144; E=-24.402316 Eh
C   0.4150362376 -1.2579439281 -0.4833022528
N   0.0371790734  0.1149112254 -0.1582457205
C  -1.3672185395  0.3519220744 -0.4738330686
C   0.9212395929  1.0984663487 -0.7745853817
H   1.4231817808 -1.4495411197 -0.1201026992
H  -0.2676933815 -1.9397742851  0.0206222829
H   0.3774679144 -1.4409522141 -1.5599990773
H  -1.6377463714  1.3773425698 -0.2315519940
H  -1.9889002474 -0.3169845572  0.1173599131
H  -1.5582732776  0.1760722029 -1.5367632437
H   0.5693502412  2.0991527975 -0.5289230333
H   0.9630977362  0.9891983273 -1.8606826080
H   1.9220147582  0.9800921918 -0.3610863999
H   0.4234236104  0.2008862887  1.0067335637
F   1.0578760599  0.1711457385  2.0238804097
H  -0.1940956833 -0.4215474364  2.5377540088
F  -1.0959395040 -0.7324462244  2.3827253007
