17
saved IRC frame 456; E=-24.407969 Eh
C   0.4642012105 -1.2476161778 -0.5245487823
N   0.1026455736  0.1245764277 -0.1900134177
C  -1.3137776711  0.3638574961 -0.4361887955
C   0.9412035231  1.0921865486 -0.8839035875
H   1.4988472420 -1.4301712418 -0.2375677620
H  -0.1774266428 -1.9283074614  0.0323004961
H   0.3521970265 -1.4511825731 -1.5950576580
H  -1.5663122227  1.3832459323 -0.1501377432
H  -1.9043955767 -0.3217064959  0.1676234709
H  -1.5689469585  0.2200650444 -1.4921653597
H   0.6426870272  2.0983649158 -0.5928326509
H   0.8624993758  1.0020762249 -1.9729420441
H   1.9800853825  0.9423367229 -0.5924280923
H   0.5238626170  0.2487315805  1.1477964316
F   0.8862538826  0.2614919919  2.1281966672
H  -0.4392940631 -0.4765635501  2.6768230116
F  -1.2843297259 -0.8813853850  2.5150458158
