17
saved IRC frame 480; E=-24.408106 Eh
C   0.3072397779 -1.2986264707 -0.5191767585
N  -0.1737170504  0.0349745339 -0.1790367759
C  -1.4674288413  0.3167463256 -0.7854561750
C   0.8153568644  1.0483740557 -0.5239878690
H   1.2639331938 -1.4659709756 -0.0274080816
H  -0.4035752887 -2.0424203269 -0.1618570354
H   0.4376811443 -1.4234997964 -1.5996276825
H  -1.7912954688  1.3140908079 -0.4911289805
H  -2.1991214453 -0.4047468521 -0.4239151695
H  -1.4310584940  0.2662241145 -1.8793021492
H   0.4480495501  2.0303762396 -0.2315184486
H   1.0259339073  1.0561748103 -1.5993599094
H   1.7382013089  0.8486814847  0.0163077638
H  -0.4792894313 -0.0714162806  1.1913982380
F   1.7575756041  0.0919837005  2.3902150823
H   0.8485766357 -0.0607352741  2.6240406208
F  -0.6970619667 -0.2402100962  2.1998133302
