17
saved IRC frame 120; E=-24.40113 Eh
C   0.4096634445 -1.2592661955 -0.4788951681
N   0.0290165205  0.1138800012 -0.1546792993
C  -1.3739457370  0.3508280981 -0.4797048418
C   0.9196272886  1.0985534704 -0.7613118908
H   1.4155308360 -1.4490534685 -0.1090291819
H  -0.2746733982 -1.9420298239  0.0213968465
H   0.3777561777 -1.4389190211 -1.5555992175
H  -1.6468728117  1.3768018075 -0.2430885779
H  -1.9998258473 -0.3163260261  0.1090576959
H  -1.5546170689  0.1710668287 -1.5432153989
H   0.5655266496  2.0991361782 -0.5190323587
H   0.9728726489  0.9876026747 -1.8459529935
H   1.9144993320  0.9792179527 -0.3343747887
H   0.3848116080  0.1969366599  0.9811105908
F   1.0800017094  0.1574886006  2.0278920113
H  -0.1530415807 -0.4119544204  2.5188653378
F  -1.0663297714 -0.7139633164  2.3665612348
