17
saved IRC frame 216; E=-24.405137 Eh
C   0.4288373728 -1.2543597214 -0.4999877383
N   0.0539622878  0.1172793153 -0.1765290804
C  -1.3532311319  0.3549986647 -0.4680867778
C   0.9245034561  1.0964774963 -0.8139637120
H   1.4449233170 -1.4438656237 -0.1566069361
H  -0.2449147303 -1.9345134134  0.0184263148
H   0.3742942637 -1.4508342760 -1.5756706754
H  -1.6151882853  1.3786096322 -0.2075266976
H  -1.9623153139 -0.3196682893  0.1296431624
H  -1.5741965585  0.1922181988 -1.5287896557
H   0.5842271776  2.0980052500 -0.5541648251
H   0.9352195480  0.9972294633 -1.9040187780
H   1.9394329671  0.9718267708 -0.4372706985
H   0.5166790984  0.2201201154  1.1013709514
F   1.0163880336  0.2082872462  2.0427820195
H  -0.2969795785 -0.4500599354  2.6049019824
F  -1.1716419237 -0.7817508937  2.4254911445
