17
saved IRC frame 144; E=-24.402316 Eh
C   0.3587717849 -1.2760438079 -0.4809029476
N  -0.1092178817  0.0678196532 -0.1519880853
C  -1.4449703519  0.3374027830 -0.6734369354
C   0.8652893672  1.0699771221 -0.5692626006
H   1.3472201550 -1.4203734202 -0.0483620592
H  -0.3177521232 -2.0094853229 -0.0457483190
H   0.4124744512 -1.4296905883 -1.5614992015
H  -1.7235066033  1.3616855359 -0.4309255036
H  -2.1542232815 -0.3309651791 -0.1868267426
H  -1.4992756292  0.1971901919 -1.7554213002
H   0.5062328521  2.0669187380 -0.3231765054
H   1.0400610464  1.0118108619 -1.6478345406
H   1.8035809905  0.9028020779 -0.0447681479
H  -0.3818044041 -0.0581262254  1.0411562780
F   1.4977478173  0.1018465719  2.2718578736
H   0.5987640428 -0.1665081870  2.5038655949
F  -0.7993922325 -0.4262608050  2.1032731424
