17
saved IRC frame 216; E=-24.405137 Eh
C   0.3442232756 -1.2815783878 -0.4963778789
N  -0.1255955650  0.0595213454 -0.1688542530
C  -1.4494998937  0.3329068628 -0.7124826813
C   0.8526214232  1.0644799371 -0.5623759556
H   1.3255555989 -1.4294054536 -0.0486742017
H  -0.3414691005 -2.0184340265 -0.0802972959
H   0.4195667044 -1.4362708023 -1.5776108479
H  -1.7368343084  1.3514651834 -0.4549579080
H  -2.1694046310 -0.3497193219 -0.2616211318
H  -1.4847322280  0.2188691267 -1.8005723421
H   0.4890924875  2.0554168621 -0.2974548790
H   1.0441742810  1.0343994935 -1.6407157194
H   1.7845724914  0.8854548889 -0.0305328438
H  -0.4611678776 -0.0944158761  1.1431723887
F   1.5910308308  0.1068963319  2.3074024974
H   0.7038333514 -0.1281306274  2.5621258481
F  -0.7859668400 -0.3714555360  2.1198272044
