17
saved IRC frame 48; E=-24.396516 Eh
C   0.3946512645 -1.2636099617 -0.4697564626
N   0.0002847930  0.1095404781 -0.1507279521
C  -1.3968268961  0.3478443609 -0.5065802146
C   0.9145946234  1.0961908293 -0.7217157017
H   1.3958629539 -1.4427678575 -0.0832756239
H  -0.2895868272 -1.9511402437  0.0236387156
H   0.3769352440 -1.4361836140 -1.5461117176
H  -1.6739842269  1.3751236826 -0.2815730153
H  -2.0336330024 -0.3146430055  0.0760813219
H  -1.5508034751  0.1601475485 -1.5710384172
H   0.5603428767  2.0977275263 -0.4853710600
H   0.9987219627  0.9851235849 -1.8026107538
H   1.8915012884  0.9657315915 -0.2586568650
H   0.2335294426  0.1845501101  0.9271886425
F   1.1540090897  0.1141238082  2.0744621319
H  -0.0057502828 -0.3732719222  2.4641747003
F  -0.9698488285 -0.6544869158  2.3118722717
