17
saved IRC frame 360; E=-24.407255 Eh
C   0.4518196700 -1.2494632589 -0.5177357945
N   0.0855820804  0.1222046743 -0.1859022100
C  -1.3276162662  0.3607926797 -0.4494919315
C   0.9344022430  1.0933283235 -0.8625678984
H   1.4804659153 -1.4344839718 -0.2113032727
H  -0.2013288924 -1.9303229471  0.0253799683
H   0.3599581858 -1.4504231721 -1.5906153720
H  -1.5838709765  1.3812060803 -0.1707154106
H  -1.9249701296 -0.3222165074  0.1505218437
H  -1.5703700745  0.2123748893 -1.5078234719
H   0.6218629595  2.0980735131 -0.5813039332
H   0.8842054689  1.0003239786 -1.9529028499
H   1.9666247449  0.9517473820 -0.5440769241
H   0.5322599329  0.2405821780  1.1422965747
F   0.9387939641  0.2451999106  2.1054422547
H  -0.3966765482 -0.4702886295  2.6625130481
F  -1.2511422773 -0.8486351229  2.4882853791
