17
saved IRC frame 456; E=-24.407969 Eh
C   0.3097716137 -1.2972913859 -0.5179568751
N  -0.1702929194  0.0367820628 -0.1783471208
C  -1.4659292404  0.3179598359 -0.7810062836
C   0.8179973590  1.0495110832 -0.5273097299
H   1.2683975426 -1.4632879615 -0.0295004146
H  -0.3993369256 -2.0407020533 -0.1564565414
H   0.4361278785 -1.4241851615 -1.5986536823
H  -1.7873595552  1.3167686841 -0.4889572126
H  -2.1971479290 -0.4012155966 -0.4138626756
H  -1.4340127015  0.2634277072 -1.8747734195
H   0.4512663947  2.0321659864 -0.2363640662
H   1.0265589655  1.0548850961 -1.6031105222
H   1.7418098856  0.8510368142  0.0117588760
H  -0.4800442192 -0.0741846016  1.1907094043
F   1.7471639841  0.0937273650  2.3854717898
H   0.8400185883 -0.0650544199  2.6221431297
F  -0.7049887219 -0.2503434547  2.1962153440
