17
saved IRC frame 168; E=-24.403411 Eh
C   0.4200325140 -1.2565790191 -0.4884623519
N   0.0438289722  0.1158014896 -0.1634849084
C  -1.3615482092  0.3529422489 -0.4702638324
C   0.9224413609  1.0979603439 -0.7879546134
H   1.4307777917 -1.4487597336 -0.1321753968
H  -0.2602988681 -1.9378142207  0.0196768451
H   0.3767563651 -1.4437707882 -1.5650636642
H  -1.6293318586  1.3778052464 -0.2219293922
H  -1.9789720165 -0.3178009535  0.1233136230
H  -1.5632115741  0.1813397799 -1.5325491084
H   0.5736924073  2.0989193535 -0.5382783682
H   0.9533881129  0.9913876653 -1.8755746634
H   1.9286959851  0.9790016605 -0.3876740195
H   0.4612020036  0.2061659545  1.0403326133
F   1.0391057828  0.1845858107  2.0236284875
H  -0.2327341310 -0.4312625833  2.5588018398
F  -1.1238246381 -0.7499222550  2.3976569100
