17
saved IRC frame 384; E=-24.407463 Eh
C   0.4551395190 -1.2489197932 -0.5196205408
N   0.0901662562  0.1228604984 -0.1869224395
C  -1.3238901632  0.3616057988 -0.4460399528
C   0.9361600451  1.0929939770 -0.8684199507
H   1.4854316928 -1.4333171555 -0.2184215552
H  -0.1949593334 -1.9297959453  0.0271088248
H   0.3578675347 -1.4504435482 -1.5919321033
H  -1.5792596825  1.3816930757 -0.1652076499
H  -1.9195220651 -0.3222175624  0.1547675858
H  -1.5697506002  0.2145888772 -1.5038368237
H   0.6274598347  2.0981536630 -0.5844470631
H   0.8780147353  1.0007235874 -1.9584686514
H   1.9703128350  0.9491422682 -0.5574268007
H   0.5303480238  0.2427823755  1.1441882552
F   0.9250725187  0.2495372025  2.1120424674
H  -0.4082843070 -0.4719933383  2.6668245867
F  -1.2603068438 -0.8573939808  2.4958118110
