17
saved IRC frame 432; E=-24.407817 Eh
C   0.3124441069 -1.2958982503 -0.5166566190
N  -0.1666979691  0.0386756235 -0.1776486980
C  -1.4643740500  0.3192285180 -0.7762900763
C   0.8207659720  1.0507112771 -0.5307512482
H   1.2730673095 -1.4604714179 -0.0316477107
H  -0.3948644316 -2.0388918768 -0.1507799235
H   0.4345510588 -1.4249466511 -1.5975815683
H  -1.7832145221  1.3195872935 -0.4866893040
H  -2.1950583663 -0.3974476936 -0.4031671334
H  -1.4372307795  0.2604142481 -1.8699356873
H   0.4545793248  2.0340422766 -0.2414613407
H   1.0273333700  1.0535249905 -1.6069670238
H   1.7455401240  0.8535507599  0.0071301751
H  -0.4807944534 -0.0770293774  1.1898725284
F   1.7361816317  0.0954418818  2.3803448344
H   0.8310226716 -0.0696318936  2.6199963210
F  -0.7132509971 -0.2608597081  2.1922324745
