17
saved IRC frame 336; E=-24.407022 Eh
C   0.3247244805 -1.2898482569 -0.5104149634
N  -0.1503977101  0.0471381667 -0.1750266915
C  -1.4577404696  0.3248736096 -0.7541099938
C   0.8333538025  1.0562507391 -0.5455292220
H   1.2939395762 -1.4478123179 -0.0404838879
H  -0.3743880452 -2.0306226388 -0.1247128868
H   0.4281680762 -1.4293476121 -1.5919349659
H  -1.7643898444  1.3323653037 -0.4761679250
H  -2.1853234812 -0.3796134881 -0.3523887615
H  -1.4538849420  0.2457659779 -1.8466311049
H   0.4687580497  2.0424633487 -0.2643740539
H   1.0327891421  1.0474884516 -1.6231125139
H   1.7616300682  0.8654454479 -0.0114505547
H  -0.4825966299 -0.0887180044  1.1832565405
F   1.6851483774  0.1019048904  2.3549939073
H   0.7892154481 -0.0909552884  2.6073033670
F  -0.7490058985 -0.3067783291  2.1707837104
