17
saved IRC frame 408; E=-24.407649 Eh
C   0.3152660967 -1.2944506296 -0.5152675444
N  -0.1629218196  0.0406569849 -0.1769529157
C  -1.4627681401  0.3205538005 -0.7712803591
C   0.8236733035  1.0519795393 -0.5343067461
H   1.2779499548 -1.4575177821 -0.0338402660
H  -0.3901456211 -2.0369846410 -0.1448027648
H   0.4329573175 -1.4258092780 -1.5963970309
H  -1.7788509055  1.3225523713 -0.4843069484
H  -2.1928432307 -0.3934239161 -0.3917603927
H  -1.4407619757  0.2571641199 -1.8647530044
H   0.4579864784  2.0360076410 -0.2468143626
H   1.0282957695  1.0520985636 -1.6109168344
H   1.7493903977  0.8562356736  0.0024514438
H  -0.4815029255 -0.0799372823  1.1888224909
F   1.7245730441  0.0971236451  2.3747898094
H   0.8215357326 -0.0744852167  2.6175392741
F  -0.7218334768 -0.2717635935  2.1877961513
