17
saved IRC frame 24; E=-24.39503 Eh
C   0.3908556651 -1.2651341079 -0.4683581822
N  -0.0085032066  0.1078383047 -0.1521251904
C  -1.4035601437  0.3470363238 -0.5166365966
C   0.9133553104  1.0949804962 -0.7105477086
H   1.3911212439 -1.4408828887 -0.0779640320
H  -0.2927242230 -1.9539786299  0.0240432043
H   0.3766357243 -1.4369014386 -1.5445113706
H  -1.6808458761  1.3744559185 -0.2923050874
H  -2.0423414816 -0.3144630336  0.0652403510
H  -1.5523748596  0.1586371585 -1.5810790432
H   0.5601709939  2.0968667345 -0.4745369441
H   1.0054613079  0.9858703880 -1.7907370181
H   1.8855882644  0.9598843150 -0.2391717481
H   0.1777336989  0.1789939554  0.9151896637
F   1.1757484864  0.1012868805  2.0995093329
H   0.0462456095 -0.3576615062  2.4495997270
F  -0.9425665140 -0.6368288702  2.2943906424
