17
saved IRC frame 264; E=-24.406106 Eh
C   0.3358573525 -1.2850341337 -0.5036714453
N  -0.1359425822  0.0543985960 -0.1731154501
C  -1.4527188159  0.3296444976 -0.7321984821
C   0.8446599407  1.0612407256 -0.5567641639
H   1.3120704893 -1.4369089760 -0.0462981705
H  -0.3558941090 -2.0232859205 -0.1001777967
H   0.4234484085 -1.4346223954 -1.5850735373
H  -1.7480297761  1.3435159130 -0.4652867460
H  -2.1762123957 -0.3627869560 -0.3026734391
H  -1.4719920063  0.2312164311 -1.8226885708
H   0.4804258359  2.0498236394 -0.2837938161
H   1.0402613695  1.0419290473 -1.6348521987
H   1.7748634513  0.8766357745 -0.0238296157
H  -0.4775999597 -0.0955299834  1.1685867350
F   1.6353033955  0.1058444486  2.3289727449
H   0.7465041847 -0.1112500107  2.5880154691
F  -0.7750047831 -0.3448306975  2.1448484832
