17
saved IRC frame 480; E=-24.408106 Eh
C   0.4669333700 -1.2472580843 -0.5259934932
N   0.1064161085  0.1250830843 -0.1910105689
C  -1.3107214320  0.3645528697 -0.4331104895
C   0.9427796065  1.0919623112 -0.8884849851
H   1.5028610501 -1.4292349632 -0.2433222559
H  -0.1720884432 -1.9278377294  0.0339754225
H   0.3504638129 -1.4515542560 -1.5958908510
H  -1.5622918580  1.3837839566 -0.1456010546
H  -1.8997517236 -0.3214077792  0.1718191167
H  -1.5689012333  0.2215710627 -1.4884435822
H   0.6472633492  2.0984250903 -0.5953689827
H   0.8581307515  1.0025166554 -1.9771577374
H   1.9829605699  0.9403655020 -0.6026873377
H   0.5216937244  0.2505593529  1.1486103162
F   0.8742176140  0.2652039965  2.1326481100
H  -0.4485890334 -0.4779867466  2.6794834695
F  -1.2913762333 -0.8887443229  2.5205349034
