17
saved IRC frame 72; E=-24.398217 Eh
C   0.3991013701 -1.2620384453 -0.4719839857
N   0.0100271480  0.1112240984 -0.1505844876
C  -1.3892231395  0.3487163382 -0.4964328067
C   0.9160543615  1.0973316531 -0.7344935910
H   1.4015242753 -1.4452249538 -0.0903692408
H  -0.2857887941 -1.9479270669  0.0229161724
H   0.3772665902 -1.4363018371 -1.5485334106
H  -1.6657328735  1.3756748544 -0.2691161508
H  -2.0231342278 -0.3151403349  0.0876263991
H  -1.5504916816  0.1627235631 -1.5607906567
H   0.5609146890  2.0984117000 -0.4969917135
H   0.9909677849  0.9853858118 -1.8164421103
H   1.8986114956  0.9716156827 -0.2820450058
H   0.2915068663  0.1894623938  0.9429005718
F   1.1290618853  0.1286480342  2.0519291361
H  -0.0589076008 -0.3883586435  2.4818418865
F  -1.0017581490 -0.6742028484  2.3305689935
