17
saved IRC frame 0; E=-24.393837 Eh
C   0.3873860430 -1.2677126898 -0.4673208812
N  -0.0173512967  0.1050757693 -0.1543835653
C  -1.4109175987  0.3454915045 -0.5253802987
C   0.9114581929  1.0931677882 -0.6996577205
H   1.3874932812 -1.4396168464 -0.0740359465
H  -0.2948635143 -1.9580569421  0.0247270181
H   0.3761948888 -1.4377311299 -1.5435185937
H  -1.6859545128  1.3731449018 -0.2988563403
H  -2.0498949253 -0.3149809789  0.0580553571
H  -1.5543200222  0.1574523223 -1.5895656617
H   0.5598720407  2.0956004865 -0.4642919743
H   1.0100409624  0.9865449445 -1.7798872426
H   1.8807036986  0.9542178951 -0.2227351925
H   0.1443234822  0.1848439658  0.8998438007
F   1.1912647020  0.0892732181  2.1243656814
H   0.0784720856 -0.3459151464  2.4314832262
F  -0.9139075075 -0.6207990625  2.2811583340
