17
saved IRC frame 264; E=-24.406106 Eh
C   0.4370565200 -1.2524807850 -0.5079897630
N   0.0649901728  0.1190319518 -0.1817041321
C  -1.3444667808  0.3571394697 -0.4631906114
C   0.9274832828  1.0952090229 -0.8339444919
H   1.4578897280 -1.4399056706 -0.1776648653
H  -0.2294432622 -1.9327041811  0.0195726845
H   0.3696070553 -1.4519421173 -1.5827664774
H  -1.6038610397  1.3794473725 -0.1947195557
H  -1.9488043962 -0.3210197888  0.1353518694
H  -1.5749569083  0.2007633728 -1.5230620025
H   0.5971166013  2.0978031446 -0.5655256280
H   0.9160121905  0.9992991804 -1.9247689187
H   1.9493734715  0.9641479505 -0.4790369286
H   0.5325956272  0.2294106396  1.1254036582
F   0.9939529179  0.2241693655  2.0692315074
H  -0.3393448331 -0.4605318114  2.6344266319
F  -1.2052003470 -0.8078371161  2.4503870230
