17
saved IRC frame 96; E=-24.399785 Eh
C   0.3697002016 -1.2716921789 -0.4736134043
N  -0.0933906458  0.0762590630 -0.1472126725
C  -1.4399493158  0.3398234771 -0.6471080137
C   0.8769909549  1.0761032190 -0.5838609783
H   1.3608606931 -1.4167461614 -0.0479786271
H  -0.3051650711 -1.9985945319 -0.0258995424
H   0.4108850950 -1.4266026846 -1.5531752038
H  -1.7163046540  1.3659087367 -0.4109971183
H  -2.1353953529 -0.3236540678 -0.1350060333
H  -1.5108071837  0.1844219625 -1.7245643113
H   0.5201012049  2.0762675998 -0.3489188260
H   1.0393421467  0.9999355718 -1.6621148001
H   1.8196980582  0.9165011793 -0.0648576279
H  -0.3151949213 -0.0180622057  0.9888189961
F   1.4234840287  0.0963074606  2.2440055937
H   0.5146887532 -0.2008263830  2.4738272775
F  -0.8195439915 -0.4753500563  2.1186552917
