17
saved IRC frame 499; E=-24.408205 Eh
C   0.3053296841 -1.2996409464 -0.5200896397
N  -0.1763131018  0.0336032295 -0.1795709348
C  -1.4685747598  0.3158236182 -0.7888053105
C   0.8133512296  1.0475159629 -0.5214449993
H   1.2605394166 -1.4680029744 -0.0257942039
H  -0.4067725796 -2.0437184927 -0.1659496160
H   0.4388908683 -1.4229986293 -1.6003363957
H  -1.7942699001  1.3120665155 -0.4927889893
H  -2.2006069661 -0.4073865212 -0.4314559122
H  -1.4288804587  0.2682958737 -1.8826881699
H   0.4455720156  2.0290190293 -0.2278562471
H   1.0255237769  1.0571449287 -1.5964716744
H   1.7354312391  0.8469216801  0.0198371998
H  -0.4787040488 -0.0692836146  1.1918694247
F   1.7654430763  0.0905844536  2.3937234901
H   0.8550677186 -0.0574895155  2.6253966520
F  -0.6910272102 -0.2324545976  2.2024253262
