17
saved IRC frame 48; E=-24.396516 Eh
C   0.3796183739 -1.2684472457 -0.4691173616
N  -0.0756458624  0.0851152059 -0.1474827559
C  -1.4341794303  0.3407363787 -0.6213112969
C   0.8890960480  1.0830806000 -0.6042963659
H   1.3717780625 -1.4168013718 -0.0473007457
H  -0.2967494385 -1.9871639444 -0.0110100763
H   0.4112351793 -1.4251502682 -1.5475795161
H  -1.7120181839  1.3668545894 -0.3882535927
H  -2.1132424429 -0.3223265132 -0.0874471244
H  -1.5212544992  0.1745843647 -1.6948842162
H   0.5329903196  2.0849625823 -0.3758925848
H   1.0406258514  0.9936671427 -1.6818186393
H   1.8352362432  0.9297120552 -0.0893181615
H  -0.2247297884  0.0371435415  0.9467774837
F   1.3448270675  0.0900612600  2.2129294592
H   0.4125155008 -0.2387251876  2.4462975465
F  -0.8401030006 -0.5273031893  2.1597079480
