17
saved IRC frame 240; E=-24.405681 Eh
C   0.3399526772 -1.2833596702 -0.5004804915
N  -0.1307723441  0.0569542857 -0.1717292413
C  -1.4510989203  0.3312831620 -0.7230838964
C   0.8486819738  1.0629343537 -0.5599665653
H   1.3186507011 -1.4331138310 -0.0477052408
H  -0.3489546549 -2.0207696603 -0.0906420383
H   0.4216976984 -1.4360750573 -1.5817670850
H  -1.7423535873  1.3474678511 -0.4605497927
H  -2.1728365752 -0.3564373254 -0.2830512893
H  -1.4786951823  0.2253835505 -1.8125080792
H   0.4846096396  2.0525153687 -0.2905444058
H   1.0427824419  1.0390056966 -1.6381551021
H   1.7795656576  0.8808670958 -0.0273187276
H  -0.4718246719 -0.0960780584  1.1586692078
F   1.6147482973  0.1066596827  2.3185884951
H   0.7274474452 -0.1192410699  2.5771133576
F  -0.7816005961 -0.3579963743  2.1331308949
