17
saved IRC frame 432; E=-24.407817 Eh
C   0.4613276262 -1.2480069563 -0.5230116496
N   0.0986873639  0.1240404890 -0.1889921760
C  -1.3169836474  0.3631359131 -0.4393748681
C   0.9395709185  1.0924298961 -0.8790510843
H   1.4946117125 -1.4311622699 -0.2315175209
H  -0.1830131804 -1.9287895939  0.0305898414
H   0.3540013759 -1.4508565644 -1.5941304094
H  -1.5704801938  1.3827160667 -0.1549156827
H  -1.9092364080 -0.3219490666  0.1633616761
H  -1.5690808295  0.2184122202 -1.4959828513
H   0.6378669645  2.0982998080 -0.5901807756
H   0.8672317765  1.0016206578 -1.9684441901
H   1.9770282713  0.9444487146 -0.5815131028
H   0.5260608679  0.2468353453  1.1468334354
F   0.8987548456  0.2576544994  2.1233261205
H  -0.4295135500 -0.4751016649  2.6738737613
F  -1.2768339138 -0.8737274942  2.5091294762
