17
saved IRC frame 72; E=-24.398217 Eh
C   0.3749292484 -1.2698155018 -0.4709547939
N  -0.0845007776  0.0808167626 -0.1465441116
C  -1.4370128363  0.3404960625 -0.6339060933
C   0.8832186412  1.0796163096 -0.5935715809
H   1.3667815231 -1.4164161310 -0.0476560819
H  -0.3004455910 -1.9926324762 -0.0176967369
H   0.4108395352 -1.4255018998 -1.5499706863
H  -1.7137776513  1.3667883702 -0.3997738738
H  -2.1242316955 -0.3222647723 -0.1100633290
H  -1.5161986027  0.1789675668 -1.7092639804
H   0.5269535155  2.0809179076 -0.3628240540
H   1.0396682139  0.9958344722 -1.6715153654
H   1.8279200631  0.9234849289 -0.0770098218
H  -0.2733062762  0.0077815129  0.9670446702
F   1.3835776672  0.0930732587  2.2286060048
H   0.4656921658 -0.2196083595  2.4594195001
F  -0.8301071426 -0.5015380115  2.1356803340
