17
saved IRC frame 288; E=-24.406457 Eh
C   0.4409625510 -1.2515901133 -0.5109168010
N   0.0704534824  0.1199070540 -0.1829219689
C  -1.3399957095  0.3581235967 -0.4599395551
C   0.9291418293  1.0946452946 -0.8421232448
H   1.4639536550 -1.4383911152 -0.1870044373
H  -0.2220299865 -1.9320413562  0.0207247199
H   0.3670266043 -1.4514312726 -1.5852799081
H  -1.5986122995  1.3798634962 -0.1884857884
H  -1.9425315861 -0.3215130151  0.1387261614
H  -1.5736808781  0.2041792074 -1.5195080654
H   0.6035905375  2.0978427407 -0.5701285211
H   0.9069292508  0.9995412092 -1.9329817707
H   1.9540704584  0.9607256203 -0.4973536097
H   0.5345730284  0.2327513264  1.1318757170
F   0.9806821043  0.2302742742  2.0801484751
H  -0.3559719809 -0.4637433939  2.6439337369
F  -1.2185610609 -0.8191435531  2.4612348602
