17
saved IRC frame 408; E=-24.407649 Eh
C   0.4583081910 -1.2484382527 -0.5213730826
N   0.0945311647  0.1234703804 -0.1879573672
C  -1.3203503563  0.3623860764 -0.4426621044
C   0.9378870062  1.0926970251 -0.8739007135
H   1.4901434767 -1.4322103466 -0.2251461105
H  -0.1888554258 -1.9292853328  0.0288537792
H   0.3558871756 -1.4506000593 -1.5930949516
H  -1.5747960533  1.3821973981 -0.1599390289
H  -1.9142777863 -0.3221237636  0.1590636016
H  -1.5693355311  0.2165937174 -1.4998804250
H   0.6327935772  2.0982293755 -0.5873942342
H   0.8723820134  1.0011635658 -1.9636326459
H   1.9737756072  0.9467132538 -0.5698732319
H   0.5282455630  0.2448582030  1.1456596311
F   0.9117055589  0.2536770498  2.1179691909
H  -0.4191989787 -0.4735859097  2.6705704506
F  -1.2688452023 -0.8657423807  2.5027372423
