    17
 geometry
 C                     0.40675309    -1.20686629     0.20278846
 N                     0.05938365     0.18604289     0.49390164
 C                    -1.36835063     0.43680705     0.28337172
 C                     0.89658009     1.12646977    -0.24649126
 H                     1.46564871    -1.37039447     0.43488419
 H                    -0.19895333    -1.86287667     0.83833302
 H                     0.22541111    -1.44228511    -0.85810357
 H                    -1.59991556     1.46819939     0.57403504
 H                    -1.94489351    -0.24620954     0.91760140
 H                    -1.64090962     0.28584099    -0.77338039
 H                     0.64410822     2.15091978     0.05152658
 H                     0.74724881     1.01843565    -1.33274646
 H                     1.95050449     0.94124450    -0.00775925
 H                     0.26339526     0.34519886     1.74136533
 F                     0.37362127     0.40904005     2.86646657
 H                    -0.61182420    -0.66947980     3.15914217
 F                    -1.26606406    -1.37403053     3.11152229
