     8
 geometry
 B                     0.00000108     0.00000001     0.02016190
 H                     1.17849661     0.00000000    -0.30398099
 H                    -0.58924888     1.02061342    -0.30396791
 H                    -0.58924868    -1.02061352    -0.30396800
 N                     0.00000203     0.00000005     1.65374739
 H                     0.47533475     0.82330467     2.01821010
 H                    -0.95067245     0.00000007     2.01819453
 H                     0.47533454    -0.82330471     2.01820998
