     8
 geometry
 B                    -0.00000671    -0.00000335     0.80867078
 H                     1.20445000    -0.00000007     0.76586092
 H                    -0.60222861     1.04308776     0.76581362
 H                    -0.60222852    -1.04309290     0.76577774
 N                    -0.00000299    -0.00000014     3.72797078
 H                     0.47500453     0.82272398     4.08504120
 H                    -0.94999143     0.00000341     4.08508236
 H                     0.47500266    -0.82272037     4.08505272
