     8
 geometry
 B                    -0.00001234    -0.00000518     0.80282930
 H                     1.20440189     0.00000010     0.77298526
 H                    -0.60220960     1.04305068     0.77289687
 H                    -0.60221104    -1.04305822     0.77284906
 N                     0.00000179     0.00000139     3.93642930
 H                     0.47454005     0.82191123     4.29614293
 H                    -0.94904620     0.00000492     4.29618462
 H                     0.47453825    -0.82190481     4.29615367
