     8
 geometry
 B                    -0.00000388     0.00000035     0.87076123
 H                     1.19802164     0.00000119     0.68194492
 H                    -0.59901403     1.03751191     0.68189017
 H                    -0.59901313    -1.03751244     0.68189372
 N                    -0.00000439     0.00000005     2.93296123
 H                     0.47852498     0.82881948     3.27051603
 H                    -0.95703274     0.00000043     3.27055806
 H                     0.47852344    -0.82882164     3.27051260
