     8
 geometry
 B                     0.00000248     0.00000000     0.83287315
 H                     1.20416487     0.00000114     0.74175065
 H                    -0.60208011     1.04283879     0.74178949
 H                    -0.60207872    -1.04283913     0.74178481
 N                     0.00000118    -0.00000173     3.32357315
 H                     0.47756169     0.82716287     3.66442523
 H                    -0.95512951     0.00000077     3.66441180
 H                     0.47755999    -0.82716472     3.66443148
