     8
 geometry
 B                     0.00000056     0.00000049     0.84960320
 H                     1.20209860     0.00000160     0.71636376
 H                    -0.60105153     1.04104522     0.71636151
 H                    -0.60105046    -1.04104500     0.71636320
 N                     0.00000167    -0.00000145     3.12600320
 H                     0.47810059     0.82809017     3.46443733
 H                    -0.95619603     0.00000031     3.46443771
 H                     0.47809891    -0.82809275     3.46444038
