     8
 geometry
 B                     0.00000437    -0.00000041     0.81942695
 H                     1.20469881     0.00000090     0.75727448
 H                    -0.60234055     1.04330042     0.75733049
 H                    -0.60233903    -1.04330139     0.75731841
 N                    -0.00000837    -0.00000230     3.52442695
 H                     0.47645578     0.82525311     3.87210763
 H                    -0.95292706     0.00000123     3.87212286
 H                     0.47645389    -0.82525417     3.87211859
