     8
 geometry
 B                    -0.00000237    -0.00000028     0.89223356
 H                     1.19024772    -0.00000002     0.63773746
 H                    -0.59512421     1.03077766     0.63770613
 H                    -0.59512131    -1.03077687     0.63769745
 N                    -0.00000741    -0.00000199     2.74013356
 H                     0.47766512     0.82733492     3.08604858
 H                    -0.95531827     0.00000079     3.08610464
 H                     0.47766283    -0.82733476     3.08606140
