15

C      -0.3951477355     1.2398376443    -0.7813695395
N       0.2413895204     0.3716161048     0.1601365063
C      -0.3946294948     0.2831003337     1.4380514582
C       0.3054163590    -1.3090952456    -0.5643893950
H      -0.3704012260     2.2676528191    -0.4076097845
H       0.1021352183     1.2116367977    -1.7473061484
H      -1.4507997434     0.9588742805    -0.8878263570
H      -0.3698669943     1.2605352662     1.9286858660
H       0.1030384329    -0.4384472211     2.0805582557
H      -1.4502834181     0.0126024380     1.3072880458
H       0.5799525237    -2.1270700978     0.0443746382
H       0.5795884069    -1.4280631498    -1.5771691485
H      -0.8742473999    -1.3235262753    -0.5703456617
H       1.2444865207     0.2946493064     0.1267269747
F       2.0258362877    -0.9617630424    -0.4150502219
