19
-29.645156
C      -2.8446946300     0.2336279300    -1.1917060800
N      -2.1037227600    -0.1575258600     0.0012371000
C      -2.8497871800     0.1524201500     1.2146161000
C      -1.7279407700    -1.5658657300    -0.0452781700
H      -3.0580224700     1.3005462300    -1.1507414500
H      -2.2396304500     0.0343119800    -2.0746405400
H      -3.7899782900    -0.3124244200    -1.2813411700
H      -3.0653510500     1.2192546200     1.2436409800
H      -2.2474886100    -0.1037454100     2.0846771400
H      -3.7941893300    -0.4002334800     1.2642977600
H      -1.1306042200    -1.8104599300     0.8315171100
H      -1.1293020200    -1.7519342200    -0.9354444500
H      -2.6056994300    -2.2204690100    -0.0676098200
H      -0.9197064700     0.5941011900     0.0289118100
F      -0.0205830900     1.1314709300     0.0403620100
H       1.4898383100     0.7543117900     0.0035878100
F       2.3612772000     0.3649820900    -0.0464942300
H       3.9982100800    -0.1603839200     0.0012108000
F       4.8837941900    -0.4828568600     0.0221165500
19
-29.643061
C      -1.7429782528     0.4051359721    -1.1880062746
N      -0.9970190233     0.0169960335     0.0043337180
C      -1.7477278194     0.3241718384     1.2171538779
C      -0.6265953603    -1.3940426907    -0.0421216979
H      -1.9612128419     1.4711595288    -1.1499178725
H      -1.1421185996     0.2052480484    -2.0735767645
H      -2.6857399547    -0.1461489560    -1.2687612208
H      -1.9680430759     1.3899285284     1.2492466010
H      -1.1499627516     0.0669841242     2.0899225247
H      -2.6897434147    -0.2328160417     1.2576822550
H      -0.0307211347    -1.6424306389     0.8345703886
H      -0.0289478798    -1.5837214892    -0.9321502044
H      -1.5100894137    -2.0402308689    -0.0644389786
H       0.1638369143     0.7303417585     0.0282096922
F       1.0955098735     1.2760883909     0.0476247830
H       2.5426527979     0.9365217657     0.0002697164
F       3.4738944603     0.5292318917    -0.0365102504
H       5.0860730961     0.0052327078    -0.0017146526
F       5.9733002401    -0.3151278314     0.0284801318
19
-29.638437
C      -1.7270896041     0.4144191430    -1.1880280323
N      -0.9775581845     0.0249181159     0.0044789445
C      -1.7315571676     0.3336307816     1.2175646857
C      -0.6128910925    -1.3898246162    -0.0420997750
H      -1.9508179420     1.4793234220    -1.1520803015
H      -1.1331884683     0.2147303287    -2.0780616346
H      -2.6647866494    -0.1442548919    -1.2524549013
H      -1.9567755793     1.3982557711     1.2515208477
H      -1.1403642542     0.0760244337     2.0944153134
H      -2.6686907885    -0.2292099235     1.2416544275
H      -0.0189110946    -1.6434323135     0.8343074724
H      -0.0167165884    -1.5848139793    -0.9318950227
H      -1.5066331882    -2.0187865480    -0.0640758084
H       0.0715786971     0.6570535477     0.0266443574
F       1.1171194762     1.2648427428     0.0446990726
H       2.4959895462     0.9502697320     0.0040566346
F       3.4905648171     0.5247334360    -0.0384790570
H       5.0653520580     0.0104558942    -0.0006589701
F       5.9543469790    -0.3148393973     0.0275882322
19
-29.633335
C      -1.7226747080     0.4167752827    -1.1908578301
N      -0.9762659276     0.0217325334     0.0042628941
C      -1.7267915568     0.3360518222     1.2205341168
C      -0.6083978001    -1.3948378100    -0.0422898776
H      -1.9388424108     1.4832382488    -1.1518832242
H      -1.1238952456     0.2206866793    -2.0785447801
H      -2.6610356147    -0.1399961456    -1.2565749898
H      -1.9442900718     1.4024751986     1.2518025987
H      -1.1308118288     0.0820914736     2.0953351237
H      -2.6646627456    -0.2248205065     1.2460455259
H      -0.0109333960    -1.6447949071     0.8329734785
H      -0.0084327422    -1.5862230908    -0.9304976257
H      -1.5027254173    -2.0228947064    -0.0643798454
H       0.0112062805     0.6256900119     0.0252555976
F       1.1422391120     1.2756000780     0.0458990618
H       2.4446719524     0.9638048539     0.0057244742
F       3.5038387097     0.5079423571    -0.0383247715
H       5.0331891191     0.0182559361    -0.0006156307
F       5.9253275349    -0.3128553413     0.0272144074
19
-29.628105
C      -1.7134991163     0.4184952457    -1.1937207765
N      -0.9697061906     0.0181564187     0.0039438327
C      -1.7173741703     0.3377966637     1.2232290369
C      -0.6000296092    -1.3999895617    -0.0426341661
H      -1.9262718417     1.4856520985    -1.1539572985
H      -1.1128228803     0.2235028485    -2.0803201835
H      -2.6529799585    -0.1350926159    -1.2632448733
H      -1.9311328155     1.4050421788     1.2537047870
H      -1.1193655447     0.0848407474     2.0968874589
H      -2.6565582503    -0.2198442545     1.2530530333
H      -0.0007740857    -1.6482991177     0.8318719275
H       0.0020966664    -1.5897039898    -0.9297419422
H      -1.4930617005    -2.0292109628    -0.0649494314
H      -0.0131074135     0.6004985023     0.0242961765
F       1.1741869521     1.3037825608     0.0473603859
H       2.3926822468     0.9788265151     0.0087626146
F       3.5156345871     0.4722361290    -0.0400605909
H       4.9862679818     0.0209315242    -0.0010575390
F       5.8880791891    -0.3040466066     0.0270435328
19
-29.623628
C      -1.6952736128     0.4203430343    -1.1971472696
N      -0.9549401934     0.0141945162     0.0035137875
C      -1.6988234483     0.3397321667     1.2263347195
C      -0.5815399136    -1.4054937974    -0.0430910165
H      -1.9054748614     1.4891366567    -1.1534368328
H      -1.0925811182     0.2216417224    -2.0829035813
H      -2.6341969925    -0.1335865402    -1.2635170741
H      -1.9095217774     1.4089722559     1.2530346837
H      -1.0987138244     0.0830684375     2.0988454063
H      -2.6376243044    -0.2176889339     1.2531195688
H       0.0161933817    -1.6549881427     0.8336125484
H       0.0197079393    -1.5960481386    -0.9320919299
H      -1.4794395906    -2.0269962370    -0.0655543057
H      -0.0247739811     0.5900375123     0.0238892686
F       1.2068138031     1.3525049235     0.0518520851
H       2.3450985387     0.9939839754     0.0111231425
F       3.4992497291     0.3783425687    -0.0484130202
H       4.9317916545    -0.0032938916    -0.0039048340
F       5.8541342264    -0.2871539120     0.0302524840
19
-29.619108
C      -1.6599790557     0.4271226481    -1.1964882662
N      -0.9201149068     0.0236686457     0.0036915961
C      -1.6639114014     0.3465163577     1.2257178263
C      -0.5495521983    -1.3932359709    -0.0429933556
H      -1.8868319867     1.4912855581    -1.1626219624
H      -1.0728823714     0.2185299978    -2.0892268591
H      -2.5959185440    -0.1253511094    -1.2572190754
H      -1.8906389709     1.4106508051     1.2613805767
H      -1.0789998262     0.0791992356     2.1041192555
H      -2.6000675447    -0.2085816170     1.2476789785
H       0.0384686465    -1.6520709542     0.8350181879
H       0.0432960615    -1.5927035495    -0.9332047225
H      -1.4401626567    -2.0171641761    -0.0661617696
H       0.0059245847     0.5743254328     0.0241552852
F       1.2346241646     1.4128433520     0.0602213666
H       2.2968217179     1.0136288118     0.0107125805
F       3.4014188473     0.1612971349    -0.0737816019
H       4.8931720479    -0.0850993465    -0.0083287521
F       5.8469771596    -0.2524684265     0.0398756079
19
-29.616557
C      -1.6727400755     0.4326080712    -1.1948839270
N      -0.9307016258     0.0320127893     0.0046177688
C      -1.6767655739     0.3521192407     1.2256653369
C      -0.5555200679    -1.3848968628    -0.0421487956
H      -1.8872031888     1.4986187876    -1.1518105996
H      -1.0776938385     0.2277418774    -2.0829156240
H      -2.6118043579    -0.1168121196    -1.2597448195
H      -1.8912296077     1.4186958554     1.2527299144
H      -1.0843713820     0.0891477774     2.1000846707
H      -2.6157511700    -0.2006835579     1.2506117361
H       0.0352546060    -1.6459933549     0.8331653474
H       0.0406277537    -1.5864320965    -0.9295226651
H      -1.4491075728    -2.0068116002    -0.0657463557
H      -0.0294675688     0.6090279560     0.0258409872
F       1.2393471514     1.4525407720     0.0621633445
H       2.2421960463     1.0431257526     0.0152389275
F       3.3900909090     0.1387401755    -0.0680301157
H       4.7863331094    -0.0762670449    -0.0109243153
F       5.7530749414    -0.2262416968     0.0391863963
19
-29.613641
C      -1.6557271204     0.4316556666    -1.1986596824
N      -0.9113781322     0.0325020953     0.0044707382
C      -1.6604875744     0.3505993694     1.2287758584
C      -0.5351123720    -1.3859451595    -0.0425160556
H      -1.8716234178     1.4984672341    -1.1667449277
H      -1.0600561465     0.2304176028    -2.0882476356
H      -2.5939972820    -0.1234064045    -1.2580387874
H      -1.8765453118     1.4172332141     1.2666847614
H      -1.0676878814     0.0907016901     2.1049997728
H      -2.5988557793    -0.2072833236     1.2482223521
H       0.0645979673    -1.6356544882     0.8297682494
H       0.0714171437    -1.5758508662    -0.9251802506
H      -1.4201206423    -2.0224943710    -0.0672820201
H       0.0046313597     0.5830189347     0.0247341026
F       1.2678784151     1.4946002691     0.0643595266
H       2.2116057939     1.0607881644     0.0177763312
F       3.2958498366    -0.0222827720    -0.0824810836
H       4.7512642076    -0.1353300056    -0.0131000576
F       5.7246545587    -0.1951331979     0.0420290401
19
-29.611525
C      -1.6478254163     0.4322332057    -1.1960389987
N      -0.8962093056     0.0421866485     0.0051355231
C      -1.6529138634     0.3512988990     1.2265848340
C      -0.5163012043    -1.3760124283    -0.0419663301
H      -1.8574531698     1.4994860821    -1.1518206793
H      -1.0481728272     0.2313857469    -2.0831728651
H      -2.5889901267    -0.1209289266    -1.2577834097
H      -1.8625267488     1.4192511091     1.2525390592
H      -1.0563159047     0.0922441488     2.1006444800
H      -2.5938977510    -0.2052958227     1.2471814873
H       0.0816086893    -1.6350930528     0.8288332611
H       0.0898171347    -1.5749122966    -0.9229650620
H      -1.4079551798    -2.0043766542    -0.0674353914
H      -0.0066874796     0.6258676813     0.0270739901
F       1.2778790403     1.5206737148     0.0661226282
H       2.1787728593     1.0885162357     0.0202279077
F       3.2684321790    -0.0744057936    -0.0754071911
H       4.6210050953    -0.1451573868    -0.0166456230
F       5.6155733156    -0.1713410572     0.0388447136
19
-29.608846
C      -1.6158503811     0.4296686159    -1.1948133064
N      -0.8600098556     0.0465999474     0.0051529209
C      -1.6219345615     0.3484949160     1.2245172824
C      -0.4804143772    -1.3689028333    -0.0420737280
H      -1.8364933264     1.4934409306    -1.1694162269
H      -1.0223307832     0.2339696342    -2.0851980586
H      -2.5559122205    -0.1262638915    -1.2588787100
H      -1.8430544067     1.4116646430     1.2688731845
H      -1.0323775007     0.0940746123     2.1026632945
H      -2.5618438288    -0.2111027528     1.2466919989
H       0.1236426679    -1.6164906470     0.8243049927
H       0.1352138545    -1.5553475415    -0.9157532758
H      -1.3472361218    -2.0318099488    -0.0705409203
H       0.0502275605     0.6019302482     0.0255716831
F       1.3157100288     1.5894085955     0.0683309431
H       2.1562561319     1.1102423561     0.0239034831
F       3.0772889106    -0.2855846138    -0.0839688078
H       4.5089771000    -0.2531393668    -0.0230358246
F       5.4969044347    -0.1132657044     0.0386215601
19
-29.608057
C      -1.5715698483     0.4302358832    -1.1915809937
N      -0.8106524269     0.0525775111     0.0055172377
C      -1.5789352225     0.3487708733     1.2206591923
C      -0.4027209471    -1.3577749139    -0.0415000839
H      -1.7903113414     1.4911493092    -1.1452347341
H      -0.9780213676     0.2316976756    -2.0793151433
H      -2.5086072389    -0.1304110533    -1.2529781490
H      -1.7980258816     1.4104655083     1.2437658346
H      -0.9896701999     0.0920467311     2.0962058736
H      -2.5157707255    -0.2152769504     1.2394189965
H       0.1966901161    -1.6126459871     0.8261297439
H       0.2142782937    -1.5498439415    -0.9131945613
H      -1.2939520341    -1.9858686164    -0.0725053418
H       0.0400951800     0.6599129649     0.0295368985
F       1.3280115641     1.6239466123     0.0677870616
H       2.1346221313     1.1441643715     0.0295803538
F       2.9004272904    -0.4182721498    -0.0714025308
H       4.1722654113    -0.2374563116    -0.0191296280
F       5.1776272404    -0.1339989098     0.0193536833
19
-29.608156
C      -1.5112349019     0.4325357292    -1.1923730351
N      -0.7489078138     0.0578055987     0.0057071964
C      -1.5198521744     0.3511155808     1.2209369534
C      -0.3422812892    -1.3519276512    -0.0412471546
H      -1.7526908493     1.4914217899    -1.1775784863
H      -0.9216586139     0.2422318675    -2.0828310986
H      -2.4452966126    -0.1377991417    -1.2526436413
H      -1.7630409529     1.4083631645     1.2754663607
H      -0.9366884939     0.1029875157     2.1014361935
H      -2.4530235089    -0.2237021122     1.2355401005
H       0.2688282658    -1.5701661861     0.8259468899
H       0.2955893241    -1.5041856477    -0.9035210772
H      -1.1868309201    -2.0452965121    -0.0793264926
H       0.1702224292     0.5924379740     0.0258507640
F       1.4366722267     1.7520354210     0.0728049616
H       2.1156763684     1.1661366303     0.0327449004
F       2.5597677879    -0.5727081909    -0.0669896252
H       3.9249509175    -0.4451632717    -0.0344697341
F       4.8556826096    -0.0618324913     0.0153195749
19
-29.602195
C      -1.4443931669     0.4279617167    -1.1879804715
N      -0.6876528582     0.0509238557     0.0061701075
C      -1.4553680224     0.3473497187     1.2156972713
C      -0.2847848579    -1.3602334811    -0.0404833180
H      -1.6736783274     1.4917944553    -1.1388989030
H      -0.8524635496     0.2375262869    -2.0768164481
H      -2.3779531897    -0.1373686105    -1.2491202582
H      -1.6864694157     1.4116004387     1.2346398908
H      -0.8700420836     0.0999054638     2.0950487866
H      -2.3882039534    -0.2223624694     1.2326667296
H       0.3244322970    -1.6042240839     0.8273609842
H       0.3613180011    -1.5367772000    -0.8978898000
H      -1.1696939997    -1.9852834207    -0.0818061645
H       0.1771370302     0.6384737966     0.0292520932
F       1.4277543460     1.7230726996     0.0711917527
H       2.0933805472     1.1999422339     0.0368551621
F       2.2562130560    -0.6283061534    -0.0677377831
H       3.5469945002    -0.3540696479    -0.0269252212
F       4.5374850178    -0.1455269188     0.0010169062
