15

C      -0.2822520793     1.2472262741    -0.7509999651
N       0.2390427636     0.3136527339     0.2211642870
C      -0.4804747954     0.2909310858     1.4723767936
C       0.2562826965    -1.5084072430    -0.6252600870
H      -0.2807652617     2.2749739242    -0.3722617521
H       0.3361248521     1.1930628828    -1.6435262422
H      -1.3059590813     0.9720900237    -1.0083563773
H      -0.4918999643     1.2764201100     1.9501231953
H      -0.0152808554    -0.4228381363     2.1492303386
H      -1.5145130698    -0.0133929961     1.2974562316
H       0.7733218580    -2.1444762945     0.0729416272
H       0.3899607183    -1.8233344796    -1.6511193832
H      -0.8063015959    -1.4263817978    -0.4079671912
H       1.2402436770     0.4424485883     0.3407823178
F       1.9424701375    -0.6719746757    -1.0445837930
15

C      -0.2833524510     1.2547571012    -0.7477429929
N       0.2444349596     0.3405972914     0.2359386042
C      -0.4844083866     0.2965932958     1.4771920172
C       0.2935532716    -1.5330201093    -0.6530286923
H      -0.2965230853     2.2894898015    -0.3845810098
H       0.3362304481     1.1968252019    -1.6390812093
H      -1.3036691741     0.9651477678    -1.0042037101
H      -0.5140558857     1.2762504388     1.9695019106
H      -0.0159151208    -0.4197081772     2.1492993903
H      -1.5134416840    -0.0186922491     1.2903585101
H       0.7680838819    -2.1592510451     0.0857795333
H       0.4216558870    -1.9147194759    -1.6611562764
H      -0.7648595573    -1.3787674677    -0.4578309057
H       1.2363065924     0.4939324134     0.3775319430
F       1.9165820869    -0.6847230903    -1.0429348329
15

C      -0.2843451107     1.2615507584    -0.7448048359
N       0.2492993299     0.3649043279     0.2492667084
C      -0.4879569306     0.3017012493     1.4815358932
C       0.3271755432    -1.5552236967    -0.6780791130
H      -0.3107384234     2.3025847635    -0.3956943728
H       0.3363257075     1.2002192390    -1.6350712873
H      -1.3016034190     0.9588850683    -1.0004575349
H      -0.5340430312     1.2760973761     1.9869837023
H      -0.0164872998    -0.4168846002     2.1493616828
H      -1.5124751729    -0.0234727743     1.2839555631
H       0.7633586355    -2.1725795403     0.0973607757
H       0.4502485118    -1.9971590720    -1.6702106886
H      -0.7274741542    -1.3358139600    -0.5028136124
H       1.2327548971     0.5403766430     0.4106842588
F       1.8932281390    -0.6962236013    -1.0414472845
15

C      -0.2851328899     1.2669422353    -0.7424731012
N       0.2531597161     0.3841945012     0.2598439517
C      -0.4907730710     0.3057549441     1.4849832127
C       0.3538583289    -1.5728445635    -0.6979592394
H      -0.3220197796     2.3129769842    -0.4045139876
H       0.3364013059     1.2029127621    -1.6318889951
H      -1.2999640265     0.9539149619    -0.9974845534
H      -0.5499049197     1.2759759048     2.0008573307
H      -0.0169413837    -0.4146437969     2.1494111183
H      -1.5117081454    -0.0272666206     1.2788741556
H       0.7596086586    -2.1831570939     0.1065517017
H       0.4729397472    -2.0625835059    -1.6773963108
H      -0.6978049303    -1.3017258634    -0.5385120906
H       1.2299362557     0.5772349923     0.4369940856
F       1.8746943410    -0.7053504586    -1.0402667595
15

C      -0.2856386753     1.2704037765    -0.7409760354
N       0.2556382365     0.3965795549     0.2666349600
C      -0.4925811444     0.3083575764     1.4871965280
C       0.3709897320    -1.5841578564    -0.7107230663
H      -0.3292628561     2.3196492007    -0.4101765289
H       0.3364498430     1.2046421104    -1.6298458378
H      -1.2989114717     0.9507239571    -0.9955757818
H      -0.5600888790     1.2758979155     2.0097647484
H      -0.0172329234    -0.4132051126     2.1494428579
H      -1.5112156834    -0.0297024198     1.2756116912
H       0.7572010253    -2.1899483013     0.1124526394
H       0.4875084172    -2.1045885782    -1.6820097642
H      -0.6787561159    -1.2798399580    -0.5614319244
H       1.2281265765     0.6008995093     0.4538860342
F       1.8627949102    -0.7112102616    -1.0395088157
15

C      -0.2858129570     1.2715965424    -0.7404601817
N       0.2564922765     0.4008471536     0.2689749819
C      -0.4932041641     0.3092543824     1.4879591845
C       0.3768928111    -1.5880561514    -0.7151211813
H      -0.3317586502     2.3219482897    -0.4121277076
H       0.3364665678     1.2052380032    -1.6291418137
H      -1.2985487860     0.9496244118    -0.9949180640
H      -0.5635980322     1.2758710422     2.0128340354
H      -0.0173333812    -0.4127093757     2.1494537946
H      -1.5110459925    -0.0305417390     1.2744875225
H       0.7563714114    -2.1922883919     0.1144859640
H       0.4925284387    -2.1190625397    -1.6835994520
H      -0.6721923419    -1.2722985890    -0.5693295609
H       1.2275030036     0.6090537461     0.4597066031
F       1.8586946458    -0.7132294121    -1.0392476461
15

C      -0.2856386753     1.2704037765    -0.7409760354
N       0.2556382365     0.3965795549     0.2666349600
C      -0.4925811444     0.3083575764     1.4871965280
C       0.3709897320    -1.5841578564    -0.7107230663
H      -0.3292628561     2.3196492007    -0.4101765289
H       0.3364498430     1.2046421104    -1.6298458378
H      -1.2989114717     0.9507239571    -0.9955757818
H      -0.5600888790     1.2758979155     2.0097647484
H      -0.0172329234    -0.4132051126     2.1494428579
H      -1.5112156834    -0.0297024198     1.2756116912
H       0.7572010253    -2.1899483013     0.1124526394
H       0.4875084172    -2.1045885782    -1.6820097642
H      -0.6787561159    -1.2798399580    -0.5614319244
H       1.2281265765     0.6008995093     0.4538860342
F       1.8627949102    -0.7112102616    -1.0395088157
15

C      -0.2851328899     1.2669422353    -0.7424731012
N       0.2531597161     0.3841945012     0.2598439517
C      -0.4907730710     0.3057549441     1.4849832127
C       0.3538583289    -1.5728445635    -0.6979592394
H      -0.3220197796     2.3129769842    -0.4045139876
H       0.3364013059     1.2029127621    -1.6318889951
H      -1.2999640265     0.9539149619    -0.9974845534
H      -0.5499049197     1.2759759048     2.0008573307
H      -0.0169413837    -0.4146437969     2.1494111183
H      -1.5117081454    -0.0272666206     1.2788741556
H       0.7596086586    -2.1831570939     0.1065517017
H       0.4729397472    -2.0625835059    -1.6773963108
H      -0.6978049303    -1.3017258634    -0.5385120906
H       1.2299362557     0.5772349923     0.4369940856
F       1.8746943410    -0.7053504586    -1.0402667595
15

C      -0.2843451107     1.2615507584    -0.7448048359
N       0.2492993299     0.3649043279     0.2492667084
C      -0.4879569306     0.3017012493     1.4815358932
C       0.3271755432    -1.5552236967    -0.6780791130
H      -0.3107384234     2.3025847635    -0.3956943728
H       0.3363257075     1.2002192390    -1.6350712873
H      -1.3016034190     0.9588850683    -1.0004575349
H      -0.5340430312     1.2760973761     1.9869837023
H      -0.0164872998    -0.4168846002     2.1493616828
H      -1.5124751729    -0.0234727743     1.2839555631
H       0.7633586355    -2.1725795403     0.0973607757
H       0.4502485118    -1.9971590720    -1.6702106886
H      -0.7274741542    -1.3358139600    -0.5028136124
H       1.2327548971     0.5403766430     0.4106842588
F       1.8932281390    -0.6962236013    -1.0414472845
15

C      -0.2833524510     1.2547571012    -0.7477429929
N       0.2444349596     0.3405972914     0.2359386042
C      -0.4844083866     0.2965932958     1.4771920172
C       0.2935532716    -1.5330201093    -0.6530286923
H      -0.2965230853     2.2894898015    -0.3845810098
H       0.3362304481     1.1968252019    -1.6390812093
H      -1.3036691741     0.9651477678    -1.0042037101
H      -0.5140558857     1.2762504388     1.9695019106
H      -0.0159151208    -0.4197081772     2.1492993903
H      -1.5134416840    -0.0186922491     1.2903585101
H       0.7680838819    -2.1592510451     0.0857795333
H       0.4216558870    -1.9147194759    -1.6611562764
H      -0.7648595573    -1.3787674677    -0.4578309057
H       1.2363065924     0.4939324134     0.3775319430
F       1.9165820869    -0.6847230903    -1.0429348329
15

C      -0.2822520793     1.2472262741    -0.7509999651
N       0.2390427636     0.3136527339     0.2211642870
C      -0.4804747954     0.2909310858     1.4723767936
C       0.2562826965    -1.5084072430    -0.6252600870
H      -0.2807652617     2.2749739242    -0.3722617521
H       0.3361248521     1.1930628828    -1.6435262422
H      -1.3059590813     0.9720900237    -1.0083563773
H      -0.4918999643     1.2764201100     1.9501231953
H      -0.0152808554    -0.4228381363     2.1492303386
H      -1.5145130698    -0.0133929961     1.2974562316
H       0.7733218580    -2.1444762945     0.0729416272
H       0.3899607183    -1.8233344796    -1.6511193832
H      -0.8063015959    -1.4263817978    -0.4079671912
H       1.2402436770     0.4424485883     0.3407823178
F       1.9424701375    -0.6719746757    -1.0445837930
15

C      -0.2811517076     1.2396954471    -0.7542569373
N       0.2336505676     0.2867081764     0.2063899697
C      -0.4765412041     0.2852688757     1.4675615700
C       0.2190121214    -1.4837943767    -0.5974914817
H      -0.2650074381     2.2604580470    -0.3599424943
H       0.3360192562     1.1893005637    -1.6479712750
H      -1.3082489885     0.9790322795    -1.0125090445
H      -0.4697440428     1.2765897813     1.9307444800
H      -0.0146465901    -0.4259680955     2.1491612869
H      -1.5155844556    -0.0080937431     1.3045539530
H       0.7785598340    -2.1297015439     0.0601037212
H       0.3582655497    -1.7319494833    -1.6410824900
H      -0.8477436345    -1.4739961278    -0.3581034768
H       1.2441807616     0.3909647632     0.3040326927
F       1.9683581882    -0.6592262610    -1.0462327531
15

C      -0.2801590479     1.2329017898    -0.7571950944
N       0.2287861973     0.2624011399     0.1930618656
C      -0.4729926602     0.2801609223     1.4632176940
C       0.1853898498    -1.4615907892    -0.5724410610
H      -0.2507921000     2.2473630850    -0.3488291313
H       0.3359239967     1.1859065267    -1.6519811971
H      -1.3103147436     0.9852949790    -1.0162552197
H      -0.4497568973     1.2767428440     1.9132626883
H      -0.0140744110    -0.4287916724     2.1490989945
H      -1.5165509667    -0.0033132179     1.3109569000
H       0.7832850805    -2.1163730488     0.0485224788
H       0.3296729249    -1.6495098871    -1.6320280778
H      -0.8851290376    -1.5169496355    -0.3131207701
H       1.2477324569     0.3445205335     0.2708803769
F       1.9917121360    -0.6477257500    -1.0477203015
15

C      -0.2793712688     1.2275103129    -0.7595268291
N       0.2249258111     0.2431109665     0.1824846222
C      -0.4701765197     0.2761072275     1.4597703745
C       0.1587070640    -1.4439699224    -0.5525609346
H      -0.2395107438     2.2369708642    -0.3400095165
H       0.3358483983     1.1832130036    -1.6551634892
H      -1.3119541361     0.9902650855    -1.0192282011
H      -0.4338950088     1.2768643152     1.8993890599
H      -0.0136203272    -0.4310324758     2.1490495589
H      -1.5173179943     0.0004806284     1.3160383075
H       0.7870350573    -2.1057954952     0.0393315528
H       0.3069816895    -1.5840854532    -1.6248424556
H      -0.9147982615    -1.5510377322    -0.2774222919
H       1.2505510983     0.3076621842     0.2445705501
F       2.0102459340    -0.6385988928    -1.0489008266
15

C      -0.2788654834     1.2240487717    -0.7610238949
N       0.2224472907     0.2307259128     0.1756936140
C      -0.4683684463     0.2735045952     1.4575570591
C       0.1415756610    -1.4326566296    -0.5397971078
H      -0.2322676673     2.2302986478    -0.3343469753
H       0.3357998612     1.1814836553    -1.6572066465
H      -1.3130066909     0.9934560903    -1.0211369727
H      -0.4237110496     1.2769423046     1.8904816422
H      -0.0133287874    -0.4324711601     2.1490178194
H      -1.5178104563     0.0029164277     1.3193007719
H       0.7894426907    -2.0990042877     0.0334306150
H       0.2924130195    -1.5420803809    -1.6202290022
H      -0.9338470758    -1.5729236375    -0.2545024581
H       1.2523607774     0.2839976673     0.2276786015
F       2.0221453648    -0.6327390898    -1.0496587704
15

C      -0.2786912017     1.2228560059    -0.7615397486
N       0.2215932507     0.2264583142     0.1733535920
C      -0.4677454266     0.2726077892     1.4567944026
C       0.1356725818    -1.4287583345    -0.5353989927
H      -0.2297718732     2.2279995587    -0.3323957965
H       0.3357831365     1.1808877625    -1.6579106706
H      -1.3133693766     0.9945556356    -1.0217946906
H      -0.4202018963     1.2769691779     1.8874123552
H      -0.0132283296    -0.4329668969     2.1490068826
H      -1.5179801471     0.0037557469     1.3204249406
H       0.7902723046    -2.0966641971     0.0313972905
H       0.2873929980    -1.5276064194    -1.6186393144
H      -0.9404108499    -1.5804650065    -0.2466048215
H       1.2529843504     0.2758434304     0.2218580326
F       2.0262456292    -0.6307199392    -1.0499199400
15

C      -0.2788654834     1.2240487717    -0.7610238949
N       0.2224472907     0.2307259128     0.1756936140
C      -0.4683684463     0.2735045952     1.4575570591
C       0.1415756610    -1.4326566296    -0.5397971078
H      -0.2322676673     2.2302986478    -0.3343469753
H       0.3357998612     1.1814836553    -1.6572066465
H      -1.3130066909     0.9934560903    -1.0211369727
H      -0.4237110496     1.2769423046     1.8904816422
H      -0.0133287874    -0.4324711601     2.1490178194
H      -1.5178104563     0.0029164277     1.3193007719
H       0.7894426907    -2.0990042877     0.0334306150
H       0.2924130195    -1.5420803809    -1.6202290022
H      -0.9338470758    -1.5729236375    -0.2545024581
H       1.2523607774     0.2839976673     0.2276786015
F       2.0221453648    -0.6327390898    -1.0496587704
15

C      -0.2793712688     1.2275103129    -0.7595268291
N       0.2249258111     0.2431109665     0.1824846222
C      -0.4701765197     0.2761072275     1.4597703745
C       0.1587070640    -1.4439699224    -0.5525609346
H      -0.2395107438     2.2369708642    -0.3400095165
H       0.3358483983     1.1832130036    -1.6551634892
H      -1.3119541361     0.9902650855    -1.0192282011
H      -0.4338950088     1.2768643152     1.8993890599
H      -0.0136203272    -0.4310324758     2.1490495589
H      -1.5173179943     0.0004806284     1.3160383075
H       0.7870350573    -2.1057954952     0.0393315528
H       0.3069816895    -1.5840854532    -1.6248424556
H      -0.9147982615    -1.5510377322    -0.2774222919
H       1.2505510983     0.3076621842     0.2445705501
F       2.0102459340    -0.6385988928    -1.0489008266
15

C      -0.2801590479     1.2329017898    -0.7571950944
N       0.2287861973     0.2624011399     0.1930618656
C      -0.4729926602     0.2801609223     1.4632176940
C       0.1853898498    -1.4615907892    -0.5724410610
H      -0.2507921000     2.2473630850    -0.3488291313
H       0.3359239967     1.1859065267    -1.6519811971
H      -1.3103147436     0.9852949790    -1.0162552197
H      -0.4497568973     1.2767428440     1.9132626883
H      -0.0140744110    -0.4287916724     2.1490989945
H      -1.5165509667    -0.0033132179     1.3109569000
H       0.7832850805    -2.1163730488     0.0485224788
H       0.3296729249    -1.6495098871    -1.6320280778
H      -0.8851290376    -1.5169496355    -0.3131207701
H       1.2477324569     0.3445205335     0.2708803769
F       1.9917121360    -0.6477257500    -1.0477203015
15

C      -0.2811517076     1.2396954471    -0.7542569373
N       0.2336505676     0.2867081764     0.2063899697
C      -0.4765412041     0.2852688757     1.4675615700
C       0.2190121214    -1.4837943767    -0.5974914817
H      -0.2650074381     2.2604580470    -0.3599424943
H       0.3360192562     1.1893005637    -1.6479712750
H      -1.3082489885     0.9790322795    -1.0125090445
H      -0.4697440428     1.2765897813     1.9307444800
H      -0.0146465901    -0.4259680955     2.1491612869
H      -1.5155844556    -0.0080937431     1.3045539530
H       0.7785598340    -2.1297015439     0.0601037212
H       0.3582655497    -1.7319494833    -1.6410824900
H      -0.8477436345    -1.4739961278    -0.3581034768
H       1.2441807616     0.3909647632     0.3040326927
F       1.9683581882    -0.6592262610    -1.0462327531
