15
-19.040470
C      -0.3869122193     1.2190016471    -0.7903532387
N       0.2496250365     0.3507801076     0.1511528071
C      -0.3863939786     0.2622643364     1.4290677590
C       0.3136518752    -1.3299312428    -0.5733730943
H      -0.3621657099     2.2468168219    -0.4165934837
H       0.1103707344     1.1908008005    -1.7562898476
H      -1.4425642272     0.9380382833    -0.8968100562
H      -0.3616314782     1.2396992690     1.9197021668
H       0.1112739491    -0.4592832183     2.0715745565
H      -1.4420479019    -0.0082335593     1.2983043466
H       0.5881880399    -2.1479060951     0.0353909390
H       0.5878239231    -1.4488991471    -1.5861528477
H      -0.8660118838    -1.3443622726    -0.5793293609
H       1.2527220369     0.2738133091     0.1177432755
F       2.0340718038    -0.9825990397    -0.4240339211
15
-19.047985
C      -0.3892611363     1.2329293600    -0.7862587345
N       0.2444441103     0.3580661704     0.1542949400
C      -0.3887418703     0.2748039901     1.4363837349
C       0.2958637090    -1.3751800180    -0.5928751259
H      -0.3668418374     2.2647396057    -0.4228433874
H       0.1119166930     1.1916548964    -1.7502175465
H      -1.4404890305     0.9447537893    -0.8995843441
H      -0.3663009397     1.2474601575     1.9370274234
H       0.1128166623    -0.4542837221     2.0680239904
H      -1.4399705834    -0.0056380074     1.3050909105
H       0.5851212396    -2.1964394752     0.0194074410
H       0.5847557051    -1.4938457263    -1.6104629846
H      -0.8364240802    -1.3372304261    -0.5762620042
H       1.2528086480     0.3247748932     0.1397104337
F       2.0403027106    -0.9765654876    -0.4214347466
15
-19.052844
C      -0.3915063340     1.2445454421    -0.7828899897
N       0.2373683922     0.3565139615     0.1536276021
C      -0.3909862067     0.2852286340     1.4425174259
C       0.2861567235    -1.4175008613    -0.6111158548
H      -0.3676104659     2.2788582300    -0.4251032995
H       0.1143134937     1.1938119373    -1.7442681655
H      -1.4394511023     0.9550736645    -0.9053589822
H      -0.3670660525     1.2555108956     1.9488437783
H       0.1152115277    -0.4484760006     2.0655074959
H      -1.4389285177    -0.0027500491     1.3165583893
H       0.5813245094    -2.2447228133     0.0019853123
H       0.5809572688    -1.5396587900    -1.6336042583
H      -0.8202357576    -1.3363008100    -0.5758640961
H       1.2511498547     0.3906880404     0.1681233610
F       2.0493026666    -0.9708214811    -0.4189587185
15
-19.053034
C      -0.3767889972     1.2480997255    -0.7801547392
N       0.2373684995     0.3535341131     0.1605398803
C      -0.4057041312     0.2807978933     1.4418179518
C       0.2861584953    -1.4213417655    -0.6022182691
H      -0.3518089767     2.2810576605    -0.4181300905
H       0.1405700324     1.1983742838    -1.7355432564
H      -1.4247957203     0.9641710679    -0.9152000427
H      -0.3828625709     1.2489289233     1.9520402264
H       0.0889571937    -0.4579569367     2.0681906483
H      -1.4535912562    -0.0018406430     1.3031963245
H       0.6135723392    -2.2211067371     0.0318438535
H       0.5487197704    -1.5775826977    -1.6302656765
H      -0.8202275601    -1.3503716656    -0.5432301407
H       1.2511509945     0.3856591275     0.1797884955
F       2.0492818877    -0.9304223494    -0.5126751652
15
-19.055677
C      -0.3726537679     1.2594466845    -0.7753180930
N       0.2316815983     0.3499553693     0.1636221779
C      -0.4143081361     0.2893574425     1.4483260542
C       0.2793239179    -1.4657622934    -0.6188580119
H      -0.3468089093     2.2925994048    -0.4123476238
H       0.1567969493     1.2055940025    -1.7239691301
H      -1.4173513941     0.9781487564    -0.9293992449
H      -0.3910279885     1.2573662690     1.9596037126
H       0.0825462426    -0.4505082663     2.0716740380
H      -1.4594505599     0.0003329226     1.3143216388
H       0.6223884812    -2.2560308111     0.0265057613
H       0.5331582138    -1.6396843371    -1.6519034480
H      -0.8106625386    -1.3580646182    -0.5332086660
H       1.2448628046     0.4467058855     0.2158328314
F       2.0615050869    -0.9094564111    -0.5548819965
15
-19.056027
C      -0.3598092719     1.2630660762    -0.7714605466
N       0.2340212903     0.3524448677     0.1736004567
C      -0.4267339626     0.2892128993     1.4508140195
C       0.2763144993    -1.4758041033    -0.6172458112
H      -0.3391608532     2.2959848760    -0.4070309888
H       0.1821152182     1.2097532703    -1.7132925885
H      -1.4024430745     0.9812598052    -0.9396482647
H      -0.4091757536     1.2560330268     1.9646260203
H       0.0624129030    -0.4523059707     2.0785225198
H      -1.4707507120     0.0003979086     1.3054990452
H       0.6471576251    -2.2400424816     0.0474108972
H       0.5067226156    -1.6775071351    -1.6533101163
H      -0.8069782835    -1.3659587917    -0.5086473884
H       1.2438388463     0.4391452041     0.2291239719
F       2.0624689136    -0.8756794519    -0.6389612260
15
-19.056485
C      -0.3475720319     1.2628720909    -0.7668164551
N       0.2339724026     0.3460826159     0.1820015656
C      -0.4370263079     0.2903456144     1.4555548760
C       0.2721863875    -1.4887184763    -0.6220786991
H      -0.3306860470     2.2945051290    -0.3982990106
H       0.2087507752     1.2109650883    -1.7001794597
H      -1.3870781752     0.9824090749    -0.9526146650
H      -0.4233687172     1.2600703550     1.9643029640
H       0.0483940796    -0.4475083325     2.0906283374
H      -1.4794753933    -0.0007442678     1.3061798940
H       0.6654663452    -2.2264264555     0.0594760123
H       0.4872761323    -1.7195893785    -1.6560872267
H      -0.8063832895    -1.3733905368    -0.4976311598
H       1.2418932389     0.4498412254     0.2526153410
F       2.0536506007    -0.8407137462    -0.7170523144
15
-19.056724
C      -0.3316557255     1.2605379159    -0.7628420755
N       0.2341681499     0.3387520969     0.1919132000
C      -0.4502246976     0.2886175450     1.4591715110
C       0.2698607022    -1.4925257402    -0.6204066270
H      -0.3155791642     2.2914061300    -0.3921948084
H       0.2386499758     1.2068990683    -1.6877290979
H      -1.3691546485     0.9839150489    -0.9642854750
H      -0.4376857909     1.2595172126     1.9656238376
H       0.0255955124    -0.4496143114     2.1013718928
H      -1.4923256364     0.0012138325     1.3008453068
H       0.6940829922    -2.1993607324     0.0770560510
H       0.4626901808    -1.7557803457    -1.6527919572
H      -0.8066775742    -1.3853278310    -0.4766595594
H       1.2410565727     0.4461209898     0.2731845567
F       2.0371991514    -0.7943708791    -0.8122567556
15
-19.056939
C      -0.3118989982     1.2556678587    -0.7591384207
N       0.2344325083     0.3292213218     0.2039574875
C      -0.4656477011     0.2882180015     1.4638778512
C       0.2669540736    -1.4969633657    -0.6179084303
H      -0.2976066426     2.2859677843    -0.3869740710
H       0.2763589599     1.1988387419    -1.6727723596
H      -1.3462493781     0.9827717739    -0.9802433773
H      -0.4539201279     1.2614539434     1.9658405339
H      -0.0014940113    -0.4495255452     2.1156529814
H      -1.5073759314     0.0053728208     1.2956118691
H       0.7322264295    -2.1752155057     0.0830634034
H       0.4304564961    -1.7829084597    -1.6500743957
H      -0.8064099452    -1.4044258914    -0.4425567117
H       1.2398769907     0.4417933947     0.2990150466
F       2.0102972779    -0.7402668732    -0.9173514067
15
-19.057056
C      -0.2932196198     1.2497438770    -0.7565066137
N       0.2354033875     0.3206101406     0.2151517234
C      -0.4786597034     0.2903940317     1.4686348961
C       0.2638428212    -1.5028350302    -0.6164846657
H      -0.2838892720     2.2796031633    -0.3830925300
H       0.3137415020     1.1906281872    -1.6579239914
H      -1.3228859138     0.9773891106    -0.9981748172
H      -0.4699027321     1.2674418938     1.9634272305
H      -0.0233575551    -0.4436454055     2.1311433781
H      -1.5191980970     0.0086540765     1.2925203435
H       0.7695133336    -2.1651875445     0.0710026473
H       0.3967370710    -1.7926543934    -1.6513685146
H      -0.8040975792    -1.4257341012    -0.4019661823
H       1.2387704202     0.4409590809     0.3248770027
F       1.9772019370    -0.6953670870    -1.0012399067
15
-19.057103
C      -0.2831415768     1.2484935451    -0.7521784243
N       0.2379245808     0.3156856896     0.2204670547
C      -0.4816820871     0.2917047952     1.4716861639
C       0.2589902081    -1.5107603999    -0.6225903639
H      -0.2808593655     2.2766186325    -0.3739141540
H       0.3354261061     1.1930842549    -1.6450347778
H      -1.3075263923     0.9732668011    -1.0087454792
H      -0.4881300152     1.2752841280     1.9546187063
H      -0.0197567443    -0.4276985191     2.1451515061
H      -1.5171446762    -0.0064472661     1.2951946453
H       0.7757895767    -2.1548088268     0.0693846471
H       0.3860042988    -1.8197696174    -1.6522245425
H      -0.8013480714    -1.4289441412    -0.3995629725
H       1.2387119853     0.4482659333     0.3416973015
F       1.9467421730    -0.6739750093    -1.0439493108
15
-19.057116
C      -0.2823241457     1.2471730073    -0.7510107612
N       0.2390353389     0.3136671840     0.2211843723
C      -0.4804459073     0.2909683598     1.4724156632
C       0.2563300409    -1.5084010413    -0.6253186608
H      -0.2808628621     2.2749439076    -0.3723362728
H       0.3360191768     1.1929772159    -1.6435587575
H      -1.3060315422     0.9719861179    -1.0083153027
H      -0.4915971793     1.2764172281     1.9503016773
H      -0.0153846466    -0.4230187259     2.1491654425
H      -1.5145758636    -0.0130861086     1.2974829542
H       0.7732818066    -2.1445161822     0.0729672884
H       0.3901075048    -1.8233224759    -1.6512102648
H      -0.8062975176    -1.4263198016    -0.4081757674
H       1.2402359749     0.4425212349     0.3407915761
F       1.9425098215    -0.6719899199    -1.0443831866
15
-19.057116
C      -0.2822520793     1.2472262741    -0.7509999651
N       0.2390427636     0.3136527339     0.2211642870
C      -0.4804747954     0.2909310858     1.4723767936
C       0.2562826965    -1.5084072430    -0.6252600870
H      -0.2807652617     2.2749739242    -0.3722617521
H       0.3361248521     1.1930628828    -1.6435262422
H      -1.3059590813     0.9720900237    -1.0083563773
H      -0.4918999643     1.2764201100     1.9501231953
H      -0.0152808554    -0.4228381363     2.1492303386
H      -1.5145130698    -0.0133929961     1.2974562316
H       0.7733218580    -2.1444762945     0.0729416272
H       0.3899607183    -1.8233344796    -1.6511193832
H      -0.8063015959    -1.4263817978    -0.4079671912
H       1.2402436770     0.4424485883     0.3407823178
F       1.9424701375    -0.6719746757    -1.0445837930
