15

C      -0.2822520793     1.2472262741    -0.7509999651
N       0.2390427636     0.3136527339     0.2211642870
C      -0.4804747954     0.2909310858     1.4723767936
C       0.2562826965    -1.5084072430    -0.6252600870
H      -0.2807652617     2.2749739242    -0.3722617521
H       0.3361248521     1.1930628828    -1.6435262422
H      -1.3059590813     0.9720900237    -1.0083563773
H      -0.4918999643     1.2764201100     1.9501231953
H      -0.0152808554    -0.4228381363     2.1492303386
H      -1.5145130698    -0.0133929961     1.2974562316
H       0.7733218580    -2.1444762945     0.0729416272
H       0.3899607183    -1.8233344796    -1.6511193832
H      -0.8063015959    -1.4263817978    -0.4079671912
H       1.2402436770     0.4424485883     0.3407823178
F       1.9424701375    -0.6719746757    -1.0445837930
