9
DME exactly C2v, both methyls eclipsed (in-plane H syn to the other C-O); atom order C O C H H H H H H
C      1.16894298     0.00000000     0.00000000
O      0.00000000     0.78846199     0.00000000
C     -1.16894298     0.00000000     0.00000000
H      0.89602877    -1.05528093     0.00000000
H      1.75786741     0.22244740     0.88982311
H      1.75786741     0.22244740    -0.88982311
H     -0.89602877    -1.05528093     0.00000000
H     -1.75786741     0.22244740     0.88982311
H     -1.75786741     0.22244740    -0.88982311
