17
TMA(HF)2 shared-proton minimum; symmetry-mapped and Kabsch-aligned to neutral
C   0.5351271490 -1.1673803778  0.2330755376
N   0.0408655236  0.1880418431  0.4924601716
C  -1.4079491344  0.2788988880  0.2890349755
C   0.7691134302  1.1961552299 -0.2750602792
H   1.6064070976 -1.2106013316  0.4628359507
H   0.0058547556 -1.8677382050  0.8895835363
H   0.3762701558 -1.4475981101 -0.8206553879
H  -1.7475019997  1.2858748692  0.5592103100
H  -1.9026583768 -0.4470940104  0.9446594985
H  -1.6698378704  0.0751216954 -0.7616805965
H   0.4095585033  2.1944337060  0.0017785215
H   0.6277395094  1.0478727644 -1.3577669872
H   1.8380569702  1.1313593508 -0.0391645621
H   0.2309942347  0.3956839849  1.7316504849
F   0.3336105843  0.4901227262  2.8584084339
H  -0.5311416201 -0.6860108020  3.1466495233
F  -1.1055257124 -1.4575475212  3.0915383791
