13
trimethylamine extracted from the reviewed TMA(HF)2 structure
C   0.68225019 -1.21904067 -0.11514323
N   0.10749978  0.00014763  0.44973169
C  -1.35238350  0.01703491  0.33232121
C   0.71073682  1.20231485 -0.12185043
H   1.76625234 -1.22306594  0.05137091
H   0.24910343 -2.09119974  0.38881652
H   0.48193270 -1.29011320 -1.19729573
H  -1.74798727  0.90842772  0.83203057
H  -1.76930346 -0.86069932  0.83883638
H  -1.66218023  0.01699964 -0.72585901
H   0.29785528  2.08717990  0.37695876
H   0.51247598  1.27194846 -1.20447139
H   1.79450086  1.18206122  0.04508410
