15
acac product (PT)
C      2.12691539    -0.50465406    -1.24635672
C      1.01565851     0.35694060    -0.70558174
O      0.98834699     1.57188490    -0.91572807
C      0.00057841    -0.31719270     0.06107729
C     -1.04910279     0.36763955     0.59093792
C     -2.12915957    -0.28310214     1.39277402
O     -1.19140790     1.67288525     0.43468506
H      2.65401379    -0.98187782    -0.42261230
H      1.71136741    -1.28510748    -1.88050148
H      2.82207435     0.10159606    -1.82091471
H     -0.41560075     1.99200056    -0.11221306
H      0.08340717    -1.37971946     0.20911489
H     -1.97959682    -1.35561909     1.45690852
H     -3.09447155    -0.07265335     0.93593567
H     -2.14251199     0.14475691     2.39387351
