15
acac reactant
C      2.12956090    -0.48043270    -1.24561073
C      0.97771544     0.27372562    -0.66472709
O      0.98834699     1.57188490    -0.91572807
C     -0.00682787    -0.31684952     0.06566566
C     -1.09687330     0.45482612     0.60318500
C     -2.13027395    -0.30739445     1.39107946
O     -1.19140790     1.67288525     0.43468506
H      3.05907067    -0.09626178    -0.82863814
H      2.04892113    -1.54228307    -1.03885996
H      2.16289409    -0.31625678    -2.32113496
H      0.17703890     1.96454022    -0.47936828
H      0.01777607    -1.37667840     0.24977501
H     -2.56527923    -1.08694630     0.76898899
H     -2.91138018     0.36725937     1.73110498
H     -1.65928174    -0.78201849     2.24958307
