19

C      -0.9977652066     0.3394474581    -1.1976170091
N      -0.3229159866    -0.1691428795    -0.0030392400
C      -1.0008224006     0.2663308643     1.2181197671
C      -0.1648360707    -1.6224692786    -0.0459543781
H      -1.0480423720     1.4256052367    -1.1512390852
H      -0.4340036952     0.0546312776    -2.0837020495
H      -2.0084105403    -0.0646840625    -1.2707174449
H      -1.0472819845     1.3533115230     1.2396868035
H      -0.4421965827    -0.0753878013     2.0871488881
H      -2.0131577793    -0.1375757751     1.2621289939
H       0.3954620235    -1.9570748238     0.8245212381
H       0.4002566252    -1.9048301820    -0.9315604401
H      -1.1373892545    -2.1167007287    -0.0633380568
H       0.7024382150     0.2892132328     0.0125122267
F       0.4989197776     2.8666491740     0.0646927632
H       1.2070595224     2.3064033730     0.0558630964
F       1.9180392368     0.8954372435     0.0314474726
H       2.6680427009    -0.3977238498    -0.0093594264
F       2.8266037716    -1.3514400017    -0.0395941193
