19
-29.475532
C      -1.7502956305     0.4010422421    -1.1887018305
N      -1.0093237605     0.0098884521     0.0042413495
C      -1.7553881805     0.3198344621     1.2176203495
C      -0.6335417705    -1.3984514179    -0.0422739205
H      -1.9636234705     1.4679605421    -1.1477372005
H      -1.1452314505     0.2017262921    -2.0716362905
H      -2.6955792905    -0.1450101079    -1.2783369205
H      -1.9709520505     1.3866689321     1.2466452295
H      -1.1530896105     0.0636689021     2.0876813895
H      -2.6997903305    -0.2328191679     1.2673020095
H      -0.0362052205    -1.6430456179     0.8345213595
H      -0.0349030205    -1.5845199079    -0.9324402005
H      -1.5113004305    -2.0530546979    -0.0646055705
H       0.1746925295     0.7615155021     0.0319160595
F       1.0738159095     1.2988852421     0.0433662595
H       2.5842373095     0.9217261021     0.0065920595
F       3.4556761995     0.5323964021    -0.0434899805
H       5.0926090795     0.0070303921     0.0042150495
F       5.9781931895    -0.3154425479     0.0251207995
19
-29.475639
C      -1.7502954060     0.4010389923    -1.1886994619
N      -1.0093196923     0.0098908919     0.0042605663
C      -1.7553912924     0.3198314446     1.2176183548
C      -0.6335335009    -1.3984505334    -0.0422752135
H      -1.9636246159     1.4679579465    -1.1477388778
H      -1.1452294143     0.2017286469    -2.0716312426
H      -2.6955767493    -0.1450152888    -1.2783337110
H      -1.9709542419     1.3866716485     1.2466455571
H      -1.1530898490     0.0636645327     2.0876846262
H      -2.6997917166    -0.2328207606     1.2673037270
H      -0.0362024994    -1.6430462354     0.8345224187
H      -0.0348966840    -1.5845131921    -0.9324374541
H      -1.5112933904    -2.0530561810    -0.0646072539
H       0.1746880473     0.7615222851     0.0318369196
F       1.0742970743     1.2987696554     0.0434499586
H       2.5837660888     0.9218468700     0.0064766150
F       3.4556707738     0.5324262123    -0.0433793847
H       5.0926795656     0.0069686763     0.0041422713
F       5.9780975027    -0.3154156111     0.0251615850
19
-29.475839
C      -1.7502944142     0.4010366563    -1.1886964639
N      -1.0093035362     0.0099021451     0.0042746097
C      -1.7553937792     0.3198301434     1.2176197864
C      -0.6335250211    -1.3984499892    -0.0422751337
H      -1.9636261125     1.4679552829    -1.1477407067
H      -1.1452273898     0.2017307633    -2.0716265036
H      -2.6955736779    -0.1450204775    -1.2783300974
H      -1.9709565020     1.3866735042     1.2466462191
H      -1.1530908791     0.0636605988     2.0876874274
H      -2.6997928653    -0.2328224915     1.2673048901
H      -0.0361994532    -1.6430471329     0.8345232762
H      -0.0348898752    -1.5845066706    -0.9324350822
H      -1.5112860145    -2.0530566243    -0.0646089953
H       0.1746936914     0.7615296751     0.0317605457
F       1.0752241647     1.2985263455     0.0435196148
H       2.5828975779     0.9220511763     0.0063707545
F       3.4555938085     0.5324881383    -0.0432664383
H       5.0927064137     0.0069231571     0.0040695986
F       5.9780438641    -0.3154042004     0.0252026985
19
-29.476122
C      -1.7502922168     0.4010359185    -1.1886939237
N      -1.0092661832     0.0099290330     0.0042855586
C      -1.7553949501     0.3198308721     1.2176238602
C      -0.6335149326    -1.3984495571    -0.0422742939
H      -1.9636282075     1.4679527196    -1.1477429924
H      -1.1452256327     0.2017327723    -2.0716222084
H      -2.6955694521    -0.1450256576    -1.2783255399
H      -1.9709591323     1.3866748745     1.2466475859
H      -1.1530925950     0.0636570578     2.0876902846
H      -2.6997929894    -0.2328242357     1.2673049832
H      -0.0361959529    -1.6430484548     0.8345238463
H      -0.0348826130    -1.5845005789    -0.9324326832
H      -1.5112783670    -2.0530551307    -0.0646107348
H       0.1747180791     0.7615379733     0.0316866554
F       1.0765690245     1.2981485302     0.0435752829
H       2.5816867126     0.9223145815     0.0062715656
F       3.4554000616     0.5326028758    -0.0431483632
H       5.0927063413     0.0068877915     0.0039974383
F       5.9780130055    -0.3154013852     0.0252436785
19
-29.476481
C      -1.7502879698     0.4010374455    -1.1886922333
N      -1.0092011371     0.0099763559     0.0042947564
C      -1.7553938155     0.3198340714     1.2176298803
C      -0.6335020481    -1.3984484160    -0.0422730201
H      -1.9636311479     1.4679504808    -1.1477460740
H      -1.1452243041     0.2017347935    -2.0716186052
H      -2.6955633591    -0.1450308492    -1.2783193815
H      -1.9709624131     1.3866761073     1.2466500304
H      -1.1530949482     0.0636539105     2.0876936273
H      -2.6997912558    -0.2328259166     1.2673033573
H      -0.0361918264    -1.6430503822     0.8345240724
H      -0.0348747915    -1.5844951632    -0.9324300476
H      -1.5112704586    -2.0530506142    -0.0646124178
H       0.1747688785     0.7615472377     0.0316150022
F       1.0783053206     1.2976310262     0.0436170468
H       2.5801683026     0.9226218603     0.0061773452
F       3.4550652558     0.5327817444    -0.0430236010
H       5.0926881677     0.0068594304     0.0039260231
F       5.9779935500    -0.3154031224     0.0252842389
19
-29.476908
C      -1.7502806389     0.4010418600    -1.1886913852
N      -1.0091037972     0.0100474665     0.0043030792
C      -1.7553892632     0.3198402343     1.2176372236
C      -0.6334853511    -1.3984454567    -0.0422714756
H      -1.9636351669     1.4679488276    -1.1477502995
H      -1.1452234994     0.2017369430    -2.0716159946
H      -2.6955545976    -0.1450360747    -1.2783108877
H      -1.9709665977     1.3866775348     1.2466539167
H      -1.1530979133     0.0636511875     2.0876978415
H      -2.6997867745    -0.2328274701     1.2672992792
H      -0.0361868728    -1.6430531049     0.8345239225
H      -0.0348662329    -1.5844906593    -0.9324270790
H      -1.5112622382    -2.0530418536    -0.0646139926
H       0.1748524687     0.7615570071     0.0315453585
F       1.0804088156     1.2969702663     0.0436450226
H       2.5783652820     0.9229632611     0.0060871090
F       3.4545775088     0.5330304866    -0.0428913197
H       5.0926563110     0.0068365351     0.0038554877
F       5.9779785574    -0.3154069907     0.0253241933
19
-29.477399
C      -1.7502691257     0.4010497338    -1.1886911561
N      -1.0089709404     0.0101446733     0.0043111036
C      -1.7553801587     0.3198498655     1.2176453339
C      -0.6334639601    -1.3984394656    -0.0422697328
H      -1.9636404742     1.4679480428    -1.1477560113
H      -1.1452232676     0.2017393380    -2.0716146942
H      -2.6955422928    -0.1450413448    -1.2782992755
H      -1.9709719081     1.3866794778     1.2466595939
H      -1.1531014692     0.0636489403     2.0877032789
H      -2.6997786056    -0.2328288288     1.2672919653
H      -0.0361808721    -1.6430568052     0.8345233829
H      -0.0348567187    -1.5844872814    -0.9324237448
H      -1.5112536002    -2.0530275394    -0.0646154084
H       0.1749738343     0.7615661951     0.0314775036
F       1.0828573337     1.2961642248     0.0436593601
H       2.5762936460     0.9233322670     0.0060002984
F       3.4539322411     0.5333515298    -0.0427511207
H       5.0926127506     0.0068184577     0.0037859113
F       5.9779635877    -0.3154114808     0.0253634120
19
-29.477948
C      -1.7502523397     0.4010615910    -1.1886912201
N      -1.0088003433     0.0102695269     0.0043192128
C      -1.7553654010     0.3198634614     1.2176537204
C      -0.6334371003    -1.3984292330    -0.0422678146
H      -1.9636472517     1.4679484190    -1.1477635377
H      -1.1452236231     0.2017420992    -2.0716150179
H      -2.6955255170    -0.1450466547    -1.2782837357
H      -1.9709785335     1.3866822466     1.2466673919
H      -1.1531055895     0.0636472364     2.0877102618
H      -2.6997657741    -0.2328299162     1.2672806060
H      -0.0361735922    -1.6430616490     0.8345224531
H      -0.0348460090    -1.5844852167    -0.9324200481
H      -1.5112443958    -2.0530063133    -0.0646166155
H       0.1751365869     0.7615730781     0.0314112185
F       1.0856305754     1.2952122996     0.0436602435
H       2.5739653608     0.9237242772     0.0059166086
F       3.4531292020     0.5337453088    -0.0426028683
H       5.0925581226     0.0068050392     0.0037173422
F       5.9779456224    -0.3154156006     0.0254017989
19
-29.478551
C      -1.7502292365     0.4010779136    -1.1886912153
N      -1.0085905054     0.0104230263     0.0043276638
C      -1.7553439504     0.3198814996     1.2176619553
C      -0.6334040798    -1.3984136142    -0.0422657179
H      -1.9636556504     1.4679502504    -1.1477731887
H      -1.1452245533     0.2017453527    -2.0716172649
H      -2.6955033095    -0.1450519849    -1.2782634480
H      -1.9709866294     1.3866861423     1.2466776204
H      -1.1531102374     0.0636461570     2.0877190870
H      -2.6997472856    -0.2328306468     1.2672643823
H      -0.0361647940    -1.6430677817     0.8345211414
H      -0.0348338529    -1.5844846245    -0.9324160107
H      -1.5112344457    -2.0529767995    -0.0646175648
H       0.1753430449     0.7615753325     0.0313462825
F       1.0887098698     1.2941151784     0.0436478918
H       2.5713900720     0.9241358338     0.0058358875
F       3.4521707499     0.5342110333    -0.0424465900
H       5.0924923297     0.0067963864     0.0036498107
F       5.9779224642    -0.3154186546     0.0254392776
19
-29.479204
C      -1.7501988365     0.4010991475    -1.1886907837
N      -1.0083404464     0.0106057683     0.0043366300
C      -1.7553148398     0.3199044357     1.2176696712
C      -0.6333642724    -1.3983915606    -0.0422634270
H      -1.9636657897     1.4679538279    -1.1477852537
H      -1.1452260243     0.2017492300    -2.0716217149
H      -2.6954746951    -0.1450573039    -1.2782375935
H      -1.9709963185     1.3866914558     1.2466905678
H      -1.1531153634     0.0636457942     2.0877300284
H      -2.6997221410    -0.2328309278     1.2672424781
H      -0.0361542342    -1.6430753275     0.8345194620
H      -0.0348199944    -1.5844856372    -0.9324116636
H      -1.5112235521    -2.0529376288    -0.0646182086
H       0.1755943354     0.7615700940     0.0312824714
F       1.0920779172     1.2928747052     0.0436225581
H       2.5685761097     0.9245641702     0.0057580765
F       3.4510608620     0.5347471306    -0.0422824197
H       5.0924148812     0.0067927475     0.0035833369
F       5.9778924022    -0.3154201212     0.0254757842
19
-29.485933
C      -1.7498005775     0.4013731369    -1.1886784627
N      -1.0053403998     0.0127951488     0.0044355982
C      -1.7549262906     0.3201960024     1.2177406183
C      -0.6328777755    -1.3980879442    -0.0422375753
H      -1.9637892246     1.4680117077    -1.1479373805
H      -1.1452462403     0.2017970745    -2.0716930549
H      -2.6951033569    -0.1451116061    -1.2779051114
H      -1.9711136151     1.3867638045     1.2468549320
H      -1.1531725025     0.0636505256     2.0878673277
H      -2.6993838263    -0.2328281657     1.2669495870
H      -0.0360246119    -1.6431688019     0.8344985385
H      -0.0346568627    -1.5845137934    -0.9323640132
H      -1.5110993593    -2.0524200419    -0.0646212035
H       0.1786488883     0.7614040514     0.0306339819
F       1.1296160193     1.2786345068     0.0432300800
H       2.5371790838     0.9291288754     0.0049860955
F       3.4381053772     0.5409796051    -0.0405106362
H       5.0914887690     0.0068104253     0.0029092082
F       5.9774965054    -0.3154145112     0.0258414703
19
-29.494539
C      -1.7488815313     0.4019941387    -1.1886330409
N      -0.9991076875     0.0173124057     0.0046227478
C      -1.7540158645     0.3208485497     1.2178369831
C      -0.6318360979    -1.3973574531    -0.0421868663
H      -1.9640495370     1.4681694189    -1.1482756204
H      -1.1452925985     0.2019023023    -2.0718856009
H      -2.6942483488    -0.1452013897    -1.2771497109
H      -1.9713603350     1.3869385322     1.2472201941
H      -1.1532813673     0.0636832337     2.0881704568
H      -2.6985792259    -0.2328049636     1.2662585746
H      -0.0357441966    -1.6433719179     0.8344541670
H      -0.0343192851    -1.5846099647    -0.9322751273
H      -1.5108491787    -2.0512146892    -0.0646160211
H       0.1846011969     0.7604604064     0.0295282812
F       1.1897103842     1.2538109406     0.0425420875
H       2.4882302126     0.9347413839     0.0034880683
F       3.4128945016     0.5530598368    -0.0373224397
H       5.0895391559     0.0069912144     0.0017770757
F       5.9765898028    -0.3153519851     0.0264457914
19
-29.493501
C      -1.7487260779     0.4020781665    -1.1885945992
N      -0.9988545198     0.0174427890     0.0046161288
C      -1.7538522611     0.3209330355     1.2177858274
C      -0.6317408239    -1.3972015197    -0.0421844855
H      -1.9640676019     1.4682140955    -1.1483181713
H      -1.1452954083     0.2019171206    -2.0719373045
H      -2.6941070301    -0.1451885636    -1.2770337500
H      -1.9713767910     1.3869750575     1.2472656895
H      -1.1532779014     0.0637052977     2.0882103355
H      -2.6984277541    -0.2327870651     1.2661339921
H      -0.0357106101    -1.6433946414     0.8344552655
H      -0.0342906656    -1.5846463398    -0.9322811921
H      -1.5108310971    -2.0510138280    -0.0646064044
H       0.1841399292     0.7596433784     0.0296220471
F       1.1805235804     1.2562213471     0.0426228001
H       2.4958750879     0.9328184712     0.0035413305
F       3.4141778715     0.5524834944    -0.0375672664
H       5.0894197876     0.0070962944     0.0018969920
F       5.9764222857    -0.3152965900     0.0263727649
19
-29.501713
C      -1.7445255572     0.4046125840    -1.1879600257
N      -0.9802613249     0.0304638533     0.0050584936
C      -1.7495994711     0.3235686642     1.2174335124
C      -0.6279035105    -1.3934886672    -0.0420141069
H      -1.9649432783     1.4691503542    -1.1496916527
H      -1.1454036249     0.2023907288    -2.0730126023
H      -2.6901705485    -0.1453089399    -1.2736489292
H      -1.9721959844     1.3878811659     1.2487499046
H      -1.1534995143     0.0640360714     2.0894869749
H      -2.6945333742    -0.2325299705     1.2628527688
H      -0.0345426368    -1.6441792766     0.8343747952
H      -0.0330068549    -1.5852558095    -0.9321242946
H      -1.5099083293    -2.0454829561    -0.0644940866
H       0.1967766406     0.7494662372     0.0273880832
F       1.2684175677     1.2078624402     0.0413139099
H       2.4212587293     0.9333015109     0.0001249938
F       3.3590808697     0.5794817728    -0.0310485187
H       5.0831142059     0.0084882047    -0.0001669890
F       5.9718459962    -0.3144579677     0.0273777690
19
-29.491132
C      -1.7472605166     0.4028484383    -1.1882203066
N      -0.9959620938     0.0192450263     0.0046366986
C      -1.7523439329     0.3217290523     1.2174086768
C      -0.6307007639    -1.3958103337    -0.0421430338
H      -1.9642490711     1.4686222421    -1.1487388383
H      -1.1452745204     0.2020989305    -2.0723692166
H      -2.6926628214    -0.1451327056    -1.2758300099
H      -1.9715391716     1.3873438001     1.2477225887
H      -1.1532455375     0.0638885335     2.0886270195
H      -2.6969438662    -0.2326364603     1.2649150411
H      -0.0353175069    -1.6436108910     0.8344758421
H      -0.0338976635    -1.5848894368    -0.9323111723
H      -1.5105479534    -2.0490242166    -0.0645401505
H       0.1839097087     0.7545233695     0.0296398467
F       1.1587234482     1.2582632033     0.0427202431
H       2.5098781602     0.9267867711     0.0034098081
F       3.4146893673     0.5528985840    -0.0376844455
H       5.0880699588     0.0077004480     0.0020552713
F       5.9746747760    -0.3148443548     0.0262261376
19
-29.497790
C      -1.7407836176     0.4061661071    -1.1865354061
N      -0.9849362218     0.0264700452     0.0048432823
C      -1.7457500848     0.3252049940     1.2159429971
C      -0.6258326489    -1.3899917968    -0.0419311923
H      -1.9648720833     1.4705667080    -1.1506445339
H      -1.1448904525     0.2031371178    -2.0742172986
H      -2.6854691403    -0.1449455638    -1.2698483289
H      -1.9720616584     1.3891913071     1.2498123436
H      -1.1528933194     0.0647952834     2.0905952995
H      -2.6896748483    -0.2319066257     1.2589991900
H      -0.0332367305    -1.6444670517     0.8346367737
H      -0.0317196854    -1.5856677064    -0.9324374654
H      -1.5089201298    -2.0393959257    -0.0642744515
H       0.1893992186     0.7363508135     0.0280096941
F       1.1921451984     1.2277954652     0.0418711312
H       2.4511265759     0.9263088609     0.0018986336
F       3.4006175023     0.5635782026    -0.0341960208
H       5.0811250814     0.0098549354     0.0008375034
F       5.9666270443    -0.3130451699     0.0266378492
19
-29.503230
C      -1.7308492335     0.4128058132    -1.1863977528
N      -0.9615157785     0.0419305055     0.0052594235
C      -1.7356152572     0.3319831708     1.2162267045
C      -0.6161040654    -1.3842813409    -0.0417211722
H      -1.9642048029     1.4747877523    -1.1541016580
H      -1.1427200294     0.2062743178    -2.0774006672
H      -2.6690272967    -0.1444186411    -1.2562905857
H      -1.9711442358     1.3932703496     1.2535988577
H      -1.1507028595     0.0677444955     2.0939656154
H      -2.6730422293    -0.2301979636     1.2455049829
H      -0.0279918425    -1.6448734655     0.8347576801
H      -0.0262620809    -1.5860321744    -0.9324262929
H      -1.5054567365    -2.0182856793    -0.0636728693
H       0.1865459234     0.6912238483     0.0250257356
F       1.2482006349     1.1786042368     0.0399916537
H       2.3949909349     0.9037022648    -0.0017926438
F       3.3318896354     0.5988132963    -0.0265788961
H       5.0573500365     0.0184712895    -0.0012890369
F       5.9556592831    -0.3115220757     0.0273409216
19
-29.502023
C      -1.7319299413     0.4118625809    -1.1861073400
N      -0.9696406885     0.0352358205     0.0050503869
C      -1.7367196975     0.3310303497     1.2158504743
C      -0.6179221378    -1.3849072344    -0.0417642604
H      -1.9632170360     1.4742286978    -1.1532117298
H      -1.1423256770     0.2062588270    -2.0767061359
H      -2.6731937208    -0.1451912183    -1.2587266940
H      -1.9701809098     1.3927723846     1.2526504189
H      -1.1502287232     0.0677736316     2.0932243812
H      -2.6772214213    -0.2312185059     1.2478563218
H      -0.0283788297    -1.6443673125     0.8349000570
H      -0.0267040362    -1.5855812537    -0.9325945880
H      -1.5075250139    -2.0233908089    -0.0638149746
H       0.1795515670     0.6988493037     0.0260227661
F       1.2157553672     1.1989026953     0.0405378461
H       2.4149044002     0.9089841019     0.0000233809
F       3.3670152171     0.5829929492    -0.0296633957
H       5.0684470679     0.0148070394    -0.0001851132
F       5.9495142136    -0.3090420481     0.0266581984
19
-29.503852
C      -1.7268236950     0.4139661844    -1.1849335324
N      -0.9638597405     0.0381208606     0.0051026291
C      -1.7314898815     0.3332602118     1.2147657423
C      -0.6144029626    -1.3822934854    -0.0416943899
H      -1.9609995378     1.4768600101    -1.1543192520
H      -1.1398951822     0.2086990952    -2.0781447653
H      -2.6663566189    -0.1452727513    -1.2524935721
H      -1.9678063947     1.3953889551     1.2539425107
H      -1.1476641057     0.0701207192     2.0947472283
H      -2.6702596068    -0.2307945286     1.2416096284
H      -0.0249888119    -1.6439804693     0.8350856543
H      -0.0232375291    -1.5852385207    -0.9327257771
H      -1.5070701672    -2.0152318897    -0.0635825820
H       0.1658138862     0.6768633464     0.0252155001
F       1.2196953284     1.1894114013     0.0397068393
H       2.3914277800     0.9043185725     0.0003808841
F       3.3691013020     0.5839888768    -0.0286611887
H       5.0515335230     0.0216707765    -0.0006586160
F       5.9472824143    -0.3098573649     0.0266570587
19
-29.509095
C      -1.7118831946     0.4216323769    -1.1828379564
N      -0.9436591899     0.0478581289     0.0052818773
C      -1.7162038720     0.3412177121     1.2130551730
C      -0.6030770884    -1.3750351631    -0.0414923063
H      -1.9546568100     1.4834889921    -1.1575667549
H      -1.1333348805     0.2156425524    -2.0818175460
H      -2.6464098561    -0.1454997913    -1.2344594342
H      -1.9610115483     1.4019696237     1.2576489575
H      -1.1407510147     0.0768329316     2.0986621084
H      -2.6499628409    -0.2295364454     1.2235421312
H      -0.0155901729    -1.6429577642     0.8351959970
H      -0.0136082322    -1.5843504391    -0.9326680540
H      -1.5054313824    -1.9914200591    -0.0629073691
H       0.1248372399     0.6118530289     0.0226424375
F       1.2431206413     1.1578400136     0.0371780761
H       2.3251754623     0.8884847968     0.0008384758
F       3.3601447699     0.5923534583    -0.0248579905
H       5.0205777048     0.0347658493    -0.0016296074
F       5.9217242649    -0.3051398024     0.0261917850
19
-29.511996
C      -1.6965275128     0.4301786848    -1.1815892122
N      -0.9229404855     0.0565150619     0.0054063017
C      -1.7004888191     0.3500092574     1.2122481891
C      -0.5913321263    -1.3688191770    -0.0413288562
H      -1.9473110108     1.4897258154    -1.1605733602
H      -1.1263857871     0.2230441496    -2.0850412675
H      -2.6257923821    -0.1455209986    -1.2161629405
H      -1.9531867926     1.4081796150     1.2610747775
H      -1.1334213284     0.0840299729     2.1021331099
H      -2.6289836579    -0.2280419077     1.2052290994
H      -0.0059772616    -1.6417890060     0.8349233965
H      -0.0037607376    -1.5833492670    -0.9322202438
H      -1.5034956889    -1.9676269804    -0.0622375958
H       0.0752354044     0.5446036538     0.0200562105
F       1.2687340476     1.1281792540     0.0345746626
H       2.2645529600     0.8722802996     0.0015310214
F       3.3495102726     0.5995326682    -0.0211306856
H       4.9927279087     0.0468209692    -0.0023333748
F       5.8888429973    -0.2979520651     0.0254407679
19
-29.507750
C      -1.7037367165     0.4293151701    -1.1869795584
N      -0.9449057011     0.0382611962     0.0048014889
C      -1.7078204767     0.3487474702     1.2176297796
C      -0.5969281335    -1.3800222161    -0.0417065605
H      -1.9449772169     1.4840800197    -1.1570329635
H      -1.1275345538     0.2216401484    -2.0805441121
H      -2.6338500269    -0.1439384671    -1.2257709068
H      -1.9509629990     1.4027016081     1.2570684553
H      -1.1345997219     0.0828941584     2.0975166929
H      -2.6371773514    -0.2272011566     1.2149660431
H      -0.0100744622    -1.6415112671     0.8328714262
H      -0.0079756779    -1.5831779807    -0.9302371204
H      -1.5028150143    -1.9827340934    -0.0626989071
H       0.0618967510     0.5786938580     0.0218991306
F       1.2522787811     1.1619427573     0.0359290908
H       2.3462370545     0.8785360055     0.0026207404
F       3.3524191272     0.5850437927    -0.0242388556
H       5.0260777830     0.0343344903    -0.0001744840
F       5.8644485552    -0.2876054938     0.0240806205
19
-29.504977
C      -1.7063518934     0.4238060534    -1.1868375182
N      -0.9645473544     0.0240959150     0.0043367578
C      -1.7103566306     0.3432248322     1.2170027973
C      -0.6008901690    -1.3896725340    -0.0420795912
H      -1.9371191104     1.4860436770    -1.1531949515
H      -1.1217104715     0.2239773434    -2.0799551022
H      -2.6337152088    -0.1407148596    -1.2304427350
H      -1.9429510888     1.4049623086     1.2532743641
H      -1.1285173482     0.0851936918     2.0969564482
H      -2.6369808026    -0.2242368066     1.2199186407
H      -0.0079930682    -1.6417174136     0.8321521552
H      -0.0059095976    -1.5834649211    -0.9296146310
H      -1.5025840897    -1.9940898806    -0.0631044124
H       0.0207796692     0.5914901744     0.0230683261
F       1.2516822763     1.1858943807     0.0359018956
H       2.3994301338     0.8857353387     0.0052355122
F       3.3633083093     0.5636645770    -0.0266795269
H       4.9627149233     0.0597982898    -0.0002303627
F       5.9017115214    -0.3039901665     0.0242919337
19
-29.513105
C      -1.6997037613     0.4225265185    -1.1808382124
N      -0.9497789100     0.0377884372     0.0047757111
C      -1.7035057853     0.3423953183     1.2108595342
C      -0.5978000462    -1.3811560409    -0.0418317661
H      -1.9319723752     1.4935117400    -1.1534230314
H      -1.1142668031     0.2272727029    -2.0848888075
H      -2.6313331126    -0.1417260683    -1.2272889690
H      -1.9375043248     1.4125332174     1.2540471019
H      -1.1208252090     0.0881284012     2.1020171483
H      -2.6344289937    -0.2248755659     1.2167250085
H      -0.0008371872    -1.6436590361     0.8351107933
H       0.0013964582    -1.5852347809    -0.9326934552
H      -1.5055608639    -1.9926190007    -0.0631486175
H       0.0222860109     0.5719757774     0.0220136477
F       1.2729090901     1.1567176316     0.0342216554
H       2.3009693695     0.8987114652     0.0068572549
F       3.4075602146     0.5496551857    -0.0256057297
H       4.9546419341     0.0619299966    -0.0004793540
F       5.8677542949    -0.2938758992     0.0235700875
19
-29.512884
C      -1.6969485211     0.4436913443    -1.2030571364
N      -0.9337896468     0.0289488998     0.0042211200
C      -1.7006791824     0.3622871358     1.2346784777
C      -0.5895142457    -1.3931358358    -0.0422926933
H      -1.9243597857     1.4817430380    -1.1526504302
H      -1.1162488973     0.2304552541    -2.0741130119
H      -2.6295918062    -0.1407182863    -1.2288550606
H      -1.9295820048     1.4008528686     1.2524558993
H      -1.1226399186     0.0920304280     2.0912554657
H      -2.6327027302    -0.2238671936     1.2183747990
H      -0.0032013060    -1.6426731860     0.8275867125
H      -0.0008922962    -1.5847141086    -0.9251175253
H      -1.4951332222    -1.9884040514    -0.0630900992
H       0.0110461069     0.5615251775     0.0215006020
F       1.3237005884     1.1429514744     0.0328875550
H       2.2708985980     0.8981438461     0.0071761322
F       3.3949996160     0.5488658651    -0.0233643052
H       4.9423926388     0.0636788110    -0.0002477278
F       5.8322460149    -0.2816614809     0.0226512266
19
-29.514817
C      -1.7037760115     0.4204762444    -1.1861972859
N      -0.9421664209     0.0378418693     0.0046949564
C      -1.7075539747     0.3400051729     1.2159945145
C      -0.5954062310    -1.3915119755    -0.0422282662
H      -1.9265306604     1.4935651318    -1.1509690792
H      -1.1112920856     0.2278844539    -2.0822293814
H      -2.6304962959    -0.1351143514    -1.2377088504
H      -1.9318408654     1.4128754780     1.2515230507
H      -1.1176443421     0.0888967045     2.0993204654
H      -2.6336328796    -0.2188279080     1.2276498518
H      -0.0026246514    -1.6456970005     0.8306612222
H      -0.0003239308    -1.5875052718    -0.9284643357
H      -1.4956271637    -1.9997480937    -0.0634644762
H       0.0050983747     0.5733525777     0.0221210460
F       1.3137538692     1.1606721531     0.0338078108
H       2.3196695022     0.8957875052     0.0069488302
F       3.3886763455     0.5443806381    -0.0241636062
H       4.9429641054     0.0619189648     0.0004224874
F       5.8287533160    -0.2792522929     0.0222810459
19
-29.512200
C      -1.6832196485     0.4352742934    -1.1787352905
N      -0.9670244838     0.0205971321     0.0041278881
C      -1.6867749569     0.3554577634     1.2096798664
C      -0.5943104802    -1.3716807943    -0.0416126447
H      -1.9244719203     1.4880222476    -1.1513240194
H      -1.1102889278     0.2274231858    -2.0838750256
H      -2.6427940145    -0.1410818264    -1.2416496678
H      -1.9296845969     1.4072161932     1.2514738189
H      -1.1166641822     0.0883536109     2.1007534667
H      -2.6459870867    -0.2250512900     1.2311825790
H       0.0032158600    -1.6506065088     0.8375567046
H       0.0055435906    -1.5919318161    -0.9357057416
H      -1.5026410358    -2.0092740301    -0.0638270196
H       0.0054899277     0.5801896348     0.0224701795
F       1.3049894129     1.1676952761     0.0340365946
H       2.3307872812     0.8985996112     0.0076955310
F       3.4021714873     0.5326678722    -0.0249134055
H       4.9235257161     0.0673969091     0.0008086965
F       5.8281380579    -0.2792674642     0.0218574890
19
-29.515558
C      -1.6981235015     0.4283639180    -1.1919703338
N      -0.9492677494     0.0300022175     0.0043389037
C      -1.7017630079     0.3476457320     1.2223804852
C      -0.5938303445    -1.3923303195    -0.0423100686
H      -1.9215238744     1.4904029491    -1.1504261860
H      -1.1091358560     0.2292830724    -2.0801710014
H      -2.6314468566    -0.1337639048    -1.2417497800
H      -1.9266248170     1.4097310203     1.2507301293
H      -1.1153928952     0.0904548206     2.0971753659
H      -2.6345560810    -0.2176343586     1.2318149117
H       0.0016760019    -1.6482610599     0.8330231498
H       0.0040322904    -1.5898743533    -0.9310429109
H      -1.4940563416    -2.0037606887    -0.0636783944
H       0.0036986112     0.5755214933     0.0222238491
F       1.3137124512     1.1616302430     0.0336495010
H       2.3168972288     0.8993515949     0.0079316277
F       3.4047404901     0.5294222801    -0.0243080410
H       4.9142239557     0.0693093984     0.0008654390
F       5.8167402959    -0.2754940549     0.0215233536
19
-29.515390
C      -1.6954355266     0.4248295813    -1.1805980356
N      -0.9463172384     0.0286307974     0.0043884460
C      -1.6989796193     0.3447567288     1.2103419093
C      -0.5836448743    -1.3904171662    -0.0422974971
H      -1.9168863493     1.4966594107    -1.1515350258
H      -1.1011551847     0.2310313415    -2.0862937028
H      -2.6249654006    -0.1296113844    -1.2436127873
H      -1.9217314172     1.4161748508     1.2522282824
H      -1.1070887217     0.0917815740     2.1034626945
H      -2.6279064120    -0.2133625851     1.2339898296
H       0.0025315717    -1.6487312920     0.8281641595
H       0.0049959480    -1.5906692785    -0.9262589862
H      -1.4909565913    -2.0032979505    -0.0637694684
H      -0.0086666872     0.5602909824     0.0215492897
F       1.3463142030     1.1512680589     0.0326506540
H       2.2950288938     0.8960403803     0.0083139850
F       3.3958982598     0.5264435089    -0.0224286232
H       4.8925219416     0.0733872447     0.0010187622
F       5.7864432050    -0.2652048031     0.0206861141
19
-29.516193
C      -1.6913132426     0.4270144321    -1.1896438893
N      -0.9403467022     0.0310142060     0.0042315248
C      -1.6947618833     0.3465804151     1.2199659198
C      -0.5940602782    -1.3909767486    -0.0423146680
H      -1.9159144796     1.4939820966    -1.1504570201
H      -1.1039151831     0.2313290791    -2.0810584673
H      -2.6311120786    -0.1308561034    -1.2474662886
H      -1.9207292034     1.4134289956     1.2509426863
H      -1.1099560020     0.0924674182     2.0980731578
H      -2.6342007345    -0.2149412050     1.2377449342
H       0.0054121924    -1.6504385745     0.8323199319
H       0.0078786343    -1.5920587004    -0.9305605561
H      -1.4886836075    -2.0075618136    -0.0639236282
H      -0.0055654482     0.5671071305     0.0218470052
F       1.3306416828     1.1581843790     0.0331727583
H       2.3083908643     0.8970487848     0.0084418883
F       3.4047259069     0.5197258272    -0.0230972806
H       4.8859855786     0.0739580247     0.0012223677
F       5.7875239840    -0.2650076436     0.0205596237
19
-29.515817
C      -1.6988086207     0.4314252648    -1.1932830670
N      -0.9552721296     0.0261919767     0.0043375875
C      -1.7023718263     0.3505794124     1.2235169677
C      -0.5811104574    -1.3965911386    -0.0426060323
H      -1.9123468065     1.4882162645    -1.1497725833
H      -1.1016085484     0.2306247870    -2.0809740310
H      -2.6269772284    -0.1269581031    -1.2509045624
H      -1.9170864750     1.4078099680     1.2498680613
H      -1.1075229933     0.0917694109     2.0979913291
H      -2.6299322951    -0.2111287721     1.2414902819
H       0.0037329887    -1.6508152565     0.8301199294
H       0.0061750724    -1.5925523524    -0.9284077970
H      -1.4915113782    -2.0135220287    -0.0641701921
H       0.0077717599     0.5781843157     0.0222372368
F       1.3272852756     1.1633037048     0.0334502280
H       2.3106591431     0.9006564609     0.0089897886
F       3.4128851012     0.5102995603    -0.0236566030
H       4.8726034950     0.0751574819     0.0015185846
F       5.7834359230    -0.2626509565     0.0202548731
19
-29.516337
C      -1.6946894891     0.4298581836    -1.1929666112
N      -0.9524310497     0.0253002804     0.0041689816
C      -1.6981406810     0.3491359831     1.2232245689
C      -0.5855843935    -1.3964754830    -0.0425669381
H      -1.9110420138     1.4911510692    -1.1499099680
H      -1.1002367330     0.2314932375    -2.0809875983
H      -2.6264881430    -0.1265067393    -1.2515726329
H      -1.9156851665     1.4107397916     1.2501773047
H      -1.1061197263     0.0926616905     2.0979736787
H      -2.6294630600    -0.2106877285     1.2421863374
H       0.0059926772    -1.6514727452     0.8311111988
H       0.0084981719    -1.5931380787    -0.9294953483
H      -1.4876260025    -2.0119040539    -0.0641545219
H       0.0039703159     0.5738358384     0.0220552408
F       1.3329545906     1.1613839352     0.0332631113
H       2.3052372268     0.8997023585     0.0091426089
F       3.4116443831     0.5081222002    -0.0232188422
H       4.8643918840     0.0764632654     0.0015556381
F       5.7748172090    -0.2596630049     0.0200137918
19
-29.516625
C      -1.6894624222     0.4289523403    -1.1909402685
N      -0.9432720002     0.0263805060     0.0040723179
C      -1.6927973444     0.3484689577     1.2212068662
C      -0.5877354991    -1.3951153587    -0.0425508853
H      -1.9088587744     1.4945040678    -1.1502589171
H      -1.0974189164     0.2323756186    -2.0819200886
H      -2.6267701201    -0.1261586825    -1.2532892987
H      -1.9133616177     1.4141154023     1.2507173913
H      -1.1032162117     0.0935103870     2.0988893826
H      -2.6297446619    -0.2103784900     1.2439229035
H       0.0083192259    -1.6521978597     0.8314188243
H       0.0108750151    -1.5938225714    -0.9298703868
H      -1.4844569184    -2.0118903802    -0.0642128524
H      -0.0033570736     0.5662823314     0.0217388037
F       1.3392365355     1.1593510894     0.0330813836
H       2.2986321826     0.8980881871     0.0093279303
F       3.4089308066     0.5047252229    -0.0226164610
H       4.8525896517     0.0778186860     0.0016061575
F       5.7618681428    -0.2550094540     0.0196771978
19
-29.516647
C      -1.6885238556     0.4289089682    -1.1908424725
N      -0.9430411791     0.0264214091     0.0040707661
C      -1.6918383958     0.3484406257     1.2210902442
C      -0.5870953642    -1.3948234897    -0.0425350046
H      -1.9083157448     1.4946710427    -1.1503109933
H      -1.0969892070     0.2324871135    -2.0818712534
H      -2.6265854990    -0.1259578100    -1.2536865875
H      -1.9127928145     1.4142958569     1.2507734749
H      -1.1027660439     0.0936319139     2.0988400304
H      -2.6295576650    -0.2101854095     1.2443336109
H       0.0085454570    -1.6523497552     0.8312940313
H       0.0111171022    -1.5939794439    -0.9297770930
H      -1.4843043329    -2.0123147945    -0.0642417650
H      -0.0033114395     0.5657300010     0.0217065659
F       1.3382814008     1.1599788037     0.0331432726
H       2.2988897971     0.8976465929     0.0093289530
F       3.4079681973     0.5038393697    -0.0225646082
H       4.8501169401     0.0778362394     0.0015996252
F       5.7602026466    -0.2542772340     0.0196492031
19
-29.516750
C      -1.6839296899     0.4292954069    -1.1904353725
N      -0.9412990018     0.0256608851     0.0040087941
C      -1.6871241034     0.3489258465     1.2206163680
C      -0.5839384912    -1.3942429446    -0.0425491792
H      -1.9038795149     1.4952479970    -1.1506669278
H      -1.0931911548     0.2332038246    -2.0818911205
H      -2.6239633095    -0.1239185226    -1.2564376497
H      -1.9081549857     1.4149651897     1.2511130718
H      -1.0988173234     0.0944009446     2.0988351504
H      -2.6268952979    -0.2081767205     1.2472224580
H       0.0105432663    -1.6534069554     0.8306564475
H       0.0131956679    -1.5950432598    -0.9293017068
H      -1.4819389865    -2.0144584699    -0.0644196143
H      -0.0021275315     0.5622136165     0.0214880247
F       1.3339872654     1.1638157363     0.0335204983
H       2.2981605226     0.8950146051     0.0094199723
F       3.4003439820     0.4972238544    -0.0221679320
H       4.8325542201     0.0776828315     0.0015793649
F       5.7464744663    -0.2484038653     0.0194093528
19
-29.516862
C      -1.6781751210     0.4300751744    -1.1909105956
N      -0.9389862075     0.0239979500     0.0038774940
C      -1.6812065655     0.3497877081     1.2210328927
C      -0.5799086691    -1.3950660513    -0.0426522617
H      -1.8968210845     1.4959906362    -1.1510370803
H      -1.0871478041     0.2342763059    -2.0817779970
H      -2.6193978544    -0.1206435470    -1.2604054782
H      -1.9007817280     1.4158504262     1.2514456883
H      -1.0925483310     0.0955665270     2.0986644830
H      -2.6222513398    -0.2049228689     1.2514114054
H       0.0137764259    -1.6548827173     0.8299217538
H       0.0165411417    -1.5965102527    -0.9287852717
H      -1.4778240591    -2.0171880663    -0.0646722877
H       0.0009335955     0.5578986356     0.0211966057
F       1.3295369580     1.1690793897     0.0340302961
H       2.2944293195     0.8918621671     0.0096617810
F       3.3880590738     0.4869965583    -0.0216080866
H       4.8066219896     0.0772344690     0.0015697231
F       5.7251502599    -0.2394024440     0.0190369355
19
-29.516991
C      -1.6713255746     0.4313713314    -1.1922996395
N      -0.9354337198     0.0212694777     0.0036700343
C      -1.6741373855     0.3511618999     1.2223640249
C      -0.5751088137    -1.3977252540    -0.0428765318
H      -1.8864256244     1.4970265694    -1.1513244354
H      -1.0779979760     0.2356361772    -2.0817350738
H      -2.6127431127    -0.1160755556    -1.2658874335
H      -1.8899313488     1.4170928258     1.2516730620
H      -1.0830781615     0.0970535378     2.0985125092
H      -2.6154712852    -0.2003656827     1.2572015158
H       0.0186559531    -1.6568725728     0.8293644040
H       0.0215690138    -1.5984528808    -0.9285112779
H      -1.4718930317    -2.0209225453    -0.0650269401
H       0.0068304058     0.5533679077     0.0208497121
F       1.3241981174     1.1764750674     0.0347266967
H       2.2863879032     0.8885982625     0.0101422876
F       3.3694237612     0.4720351045    -0.0209498860
H       4.7712729214     0.0762160587     0.0015793046
F       5.6952079580    -0.2268897286     0.0185276667
19
-29.517096
C      -1.6664535515     0.4323847948    -1.1940141634
N      -0.9320622829     0.0189104286     0.0034852738
C      -1.6690918422     0.3522048466     1.2240364674
C      -0.5718134595    -1.4011669960    -0.0431196043
H      -1.8774748745     1.4980441177    -1.1512405276
H      -1.0698960974     0.2365365535    -2.0817283606
H      -2.6074980128    -0.1126481646    -1.2702713822
H      -1.8805988031     1.4182925856     1.2515420320
H      -1.0747107179     0.0980588038     2.0983827741
H      -2.6101105338    -0.1969293145     1.2618161113
H       0.0228712376    -1.6584122479     0.8293991709
H       0.0259006865    -1.5999202946    -0.9287658091
H      -1.4673138170    -2.0241723775    -0.0653270553
H       0.0132162654     0.5516278957     0.0206525106
F       1.3198640229     1.1831457235     0.0353168896
H       2.2767031658     0.8874966354     0.0107075392
F       3.3521826766     0.4589583843    -0.0206433233
H       4.7445550957     0.0747896544     0.0016141501
F       5.6717308422    -0.2172010287     0.0181573067
19
-29.517199
C      -1.6624874350     0.4330102905    -1.1957108495
N      -0.9283027916     0.0168712102     0.0033157529
C      -1.6649714413     0.3528478597     1.2256780057
C      -0.5694998169    -1.4049346811    -0.0433667862
H      -1.8691935032     1.4991030599    -1.1507826985
H      -1.0622220014     0.2369988341    -2.0816917510
H      -2.6033882343    -0.1101635895    -1.2740037931
H      -1.8719759485     1.4195277519     1.2510409304
H      -1.0667985424     0.0986150716     2.0981972483
H      -2.6058954761    -0.1944245537     1.2657154572
H       0.0266335072    -1.6597199384     0.8299056246
H       0.0297629507    -1.6011338418    -0.9294667694
H      -1.4638317331    -2.0274193830    -0.0656075195
H       0.0200192230     0.5524181614     0.0205889651
F       1.3145560340     1.1908585739     0.0359412860
H       2.2651727493     0.8883793361     0.0113878262
F       3.3342403142     0.4462679342    -0.0207381477
H       4.7245160441     0.0727006990     0.0016684522
F       5.6536661012    -0.2098027950     0.0179287662
19
-29.517328
C      -1.6571359636     0.4332660586    -1.1973566699
N      -0.9231632583     0.0145781871     0.0031116428
C      -1.6594270694     0.3531479043     1.2272143372
C      -0.5667892930    -1.4091579755    -0.0436478222
H      -1.8589745838     1.5003837378    -1.1499265026
H      -1.0528200034     0.2372163818    -2.0814409746
H      -2.5989102889    -0.1076883159    -1.2783517454
H      -1.8613452264     1.4210383851     1.2501189035
H      -1.0571028549     0.0989555491     2.0977320997
H      -2.6012981224    -0.1919189886     1.2702301939
H       0.0308923192    -1.6613647654     0.8306318862
H       0.0341449863    -1.6026603411    -0.9304510658
H      -1.4601576552    -2.0316610169    -0.0659598617
H       0.0281023399     0.5550042267     0.0206005044
F       1.3052988519     1.2033643500     0.0369041223
H       2.2494973063     0.8908296408     0.0123169404
F       3.3097310555     0.4296062829    -0.0212490211
H       4.7041029738     0.0693022521     0.0017389809
F       5.6353544864    -0.2022415531     0.0177840519
19
-29.517578
C      -1.6446062748     0.4332568205    -1.1996653394
N      -0.9125785400     0.0099841234     0.0026993678
C      -1.6464888666     0.3532926919     1.2292376938
C      -0.5605354329    -1.4161668844    -0.0441480559
H      -1.8379857968     1.5026508285    -1.1481185744
H      -1.0339346974     0.2374317140    -2.0805624780
H      -2.5895555353    -0.1027542956    -1.2870620095
H      -1.8395133982     1.4237876677     1.2481389402
H      -1.0376031787     0.0994391393     2.0963958826
H      -2.5917159511    -0.1869198744     1.2792745240
H       0.0390335835    -1.6650252608     0.8316208834
H       0.0425496490    -1.6061156932    -0.9320220400
H      -1.4526185706    -2.0401887428    -0.0666807436
H       0.0422368250     0.5599215523     0.0206309485
F       1.2834600136     1.2333242869     0.0391870491
H       2.2172861749     0.8960667600     0.0141748012
F       3.2571962332     0.3940108465    -0.0225688954
H       4.6646865780     0.0617173693     0.0018516523
F       5.6006871854    -0.1877130492     0.0176163934
19
-29.517874
C      -1.6285779398     0.4331039049    -1.2015786449
N      -0.9005903217     0.0045075159     0.0022168579
C      -1.6299727144     0.3533680357     1.2307868141
C      -0.5523094616    -1.4229240281    -0.0446721148
H      -1.8134043444     1.5048824896    -1.1461785567
H      -1.0122620264     0.2376845494    -2.0792976648
H      -2.5777714732    -0.0966555483    -1.2970962366
H      -1.8139395177     1.4265822144     1.2459616548
H      -1.0151996514     0.1000173051     2.0945937163
H      -2.5796714727    -0.1807356499     1.2897220733
H       0.0482257007    -1.6696515106     0.8321296039
H       0.0520613138    -1.6105467727    -0.9332573440
H      -1.4432342317    -2.0495752684    -0.0675097103
H       0.0558234374     0.5637299415     0.0205962799
F       1.2577746636     1.2710775869     0.0420668431
H       2.1800801759     0.9014547577     0.0162129567
F       3.1948523894     0.3514059384    -0.0240943728
H       4.6180789712     0.0527973595     0.0019363665
F       5.5600365030    -0.1705228212     0.0174614786
19
-29.518267
C      -1.6118964179     0.4330864914    -1.2027831440
N      -0.8899015598    -0.0007898959     0.0017713023
C      -1.6128196862     0.3535985539     1.2316034921
C      -0.5424809825    -1.4279562510    -0.0451149830
H      -1.7896834205     1.5061948493    -1.1445315897
H      -0.9919337863     0.2378610245    -2.0777989577
H      -2.5651407377    -0.0903177148    -1.3064595250
H      -1.7892582025     1.4284339080     1.2440195749
H      -0.9941532608     0.1005207298     2.0925739660
H      -2.5667825364    -0.1742905564     1.2995137783
H       0.0565895032    -1.6745225293     0.8317139319
H       0.0607448952    -1.6152930284    -0.9335947403
H      -1.4339235933    -2.0580151398    -0.0682936774
H       0.0656523488     0.5652264262     0.0204829708
F       1.2333602107     1.3108256111     0.0451200195
H       2.1450259277     0.9058556723     0.0179787125
F       3.1333965913     0.3092037706    -0.0255173217
H       4.5725964855     0.0440478142     0.0019414207
F       5.5206082215    -0.1536697359     0.0173747696
19
-29.518646
C      -1.5960525273     0.4330440493    -1.2039110989
N      -0.8792609270    -0.0060037825     0.0013201051
C      -1.5965244775     0.3538082525     1.2323784479
C      -0.5340977044    -1.4328866300    -0.0455634467
H      -1.7668743492     1.5071699585    -1.1430790058
H      -0.9725111085     0.2379070211    -2.0764227378
H      -2.5518945174    -0.0838526862    -1.3151104607
H      -1.7655227736     1.4299078822     1.2422524781
H      -0.9740496651     0.1008809503     2.0906690014
H      -2.5532775539    -0.1676957519     1.3085969360
H       0.0649147635    -1.6795316453     0.8313822550
H       0.0693736333    -1.6201750968    -0.9339953211
H      -1.4238530114    -2.0649062407    -0.0690045338
H       0.0732883002     0.5655668220     0.0203360768
F       1.2128822534     1.3499084349     0.0481584975
H       2.1101077170     0.9104395476     0.0195810537
F       3.0728730988     0.2681175440    -0.0267993875
H       4.5290646629     0.0353330059     0.0018916902
F       5.4814141861    -0.1370316350     0.0173194506
19
-29.519025
C      -1.5799285084     0.4332124213    -1.2051093505
N      -0.8687527125    -0.0110054383     0.0008844859
C      -1.5799570628     0.3542155318     1.2332245222
C      -0.5247978234    -1.4375436900    -0.0459931388
H      -1.7444305670     1.5080268071    -1.1417728163
H      -0.9535206739     0.2378397507    -2.0751271414
H      -2.5383588879    -0.0774877984    -1.3232705628
H      -1.7421644234     1.4312448670     1.2406182667
H      -0.9543881926     0.1011208751     2.0888388356
H      -2.5394715033    -0.1611712933     1.3171784424
H       0.0731396438    -1.6846901389     0.8307852973
H       0.0779034309    -1.6252291632    -0.9341401675
H      -1.4141107747    -2.0712167532    -0.0696900462
H       0.0794315509     0.5650196997     0.0201616311
F       1.1950278278     1.3888317109     0.0512301485
H       2.0751248574     0.9153399610     0.0210723732
F       3.0119314858     0.2272172530    -0.0279585044
H       4.4854075055     0.0266057857     0.0017714443
F       5.4419148279    -0.1203303880     0.0172962807
19
-29.519474
C      -1.5641199444     0.4334007320    -1.2060080349
N      -0.8575016608    -0.0151044850     0.0004857949
C      -1.5637179380     0.3546539915     1.2337843947
C      -0.5163066379    -1.4415205585    -0.0463909617
H      -1.7233483638     1.5088114141    -1.1409559392
H      -0.9357469321     0.2373995352    -2.0744429385
H      -2.5238281561    -0.0713396711    -1.3298199838
H      -1.7202139666     1.4324375818     1.2394538976
H      -0.9359931438     0.1009447234     2.0875928587
H      -2.5246537522    -0.1547851136     1.3241231711
H       0.0817290605    -1.6903648630     0.8302539906
H       0.0867914877    -1.6308077546    -0.9343529476
H      -1.4041145433    -2.0748659289    -0.0702560481
H       0.0813025914     0.5620461431     0.0199189788
F       1.1837847008     1.4260060816     0.0542995118
H       2.0413995348     0.9211694936     0.0222550138
F       2.9508479334     0.1877853542    -0.0287394211
H       4.4426319405     0.0178105145     0.0014561116
F       5.4010577897    -0.1036771902     0.0173425513
19
-29.519850
C      -1.5461071744     0.4347251483    -1.2073916471
N      -0.8486553567    -0.0199633678     0.0000694005
C      -1.5452870372     0.3561558019     1.2348442529
C      -0.5020852811    -1.4443636589    -0.0467258140
H      -1.7025699418     1.5094782104    -1.1406641924
H      -0.9185874601     0.2367039362    -2.0739010921
H      -2.5093669905    -0.0663865657    -1.3348575668
H      -1.6985774651     1.4334902141     1.2387838106
H      -0.9181959649     0.1004910107     2.0864886262
H      -2.5098980756    -0.1495065437     1.3294655022
H       0.0901367400    -1.6962698000     0.8284249194
H       0.0955037568    -1.6367127314    -0.9332932543
H      -1.3965895490    -2.0777084109    -0.0707999198
H       0.0834825741     0.5586078161     0.0196757566
F       1.1709505381     1.4657484860     0.0576111913
H       2.0116731455     0.9267426134     0.0232381586
F       2.8898948882     0.1462287165    -0.0293490814
H       4.3939671345     0.0092915695     0.0008853558
F       5.3603115193    -0.0867524447     0.0174955938
19
-29.520247
C      -1.5308865847     0.4346358976    -1.2079433077
N      -0.8371314407    -0.0231922391    -0.0002864649
C      -1.5296605302     0.3563122565     1.2350380344
C      -0.4940608106    -1.4472856060    -0.0470625770
H      -1.6833366853     1.5103540023    -1.1407467001
H      -0.9025117743     0.2357202303    -2.0741021590
H      -2.4938304296    -0.0612338532    -1.3385701398
H      -1.6785455933     1.4346776761     1.2385042963
H      -0.9015446599     0.0996957358     2.0861071152
H      -2.4940848966    -0.1440009912     1.3334898817
H       0.0994324089    -1.7024947913     0.8277570381
H       0.1050953414    -1.6428754919    -0.9333710977
H      -1.3867787153    -2.0772844918    -0.0711883194
H       0.0827874343     0.5537487318     0.0194040657
F       1.1644237397     1.5018737627     0.0607033764
H       1.9821629240     0.9339900703     0.0241086797
F       2.8307933888     0.1070224632    -0.0297292519
H       4.3508064097     0.0006388467     0.0002512866
F       5.3168704738    -0.0703022089     0.0176362433
19
-29.520526
C      -1.5149488003     0.4352251982    -1.2087715685
N      -0.8258826875    -0.0264654259    -0.0006429545
C      -1.5133346089     0.3571207449     1.2355551087
C      -0.4841046252    -1.4500462856    -0.0474025256
H      -1.6640118626     1.5110006151    -1.1411115888
H      -0.8865592876     0.2345719488    -2.0743508535
H      -2.4785241998    -0.0567441418    -1.3415914932
H      -1.6584216990     1.4356137980     1.2384749292
H      -0.8850147892     0.0987381353     2.0857508953
H      -2.4784906944    -0.1391103309     1.3367735276
H       0.1088771019    -1.7087369874     0.8266646110
H       0.1148307224    -1.6490886542    -0.9330070768
H      -1.3779341110    -2.0764033000    -0.0715616378
H       0.0835518534     0.5491837203     0.0191465207
F       1.1607557254     1.5366854180     0.0637043788
H       1.9519636334     0.9428377952     0.0250657764
F       2.7701013514     0.0675151385    -0.0299992021
H       4.3052460777    -0.0082429387    -0.0004941531
F       5.2719008998    -0.0536544478     0.0177973062
19
-29.520814
C      -1.4998842264     0.4351397342    -1.2100114673
N      -0.8129967178    -0.0284543456    -0.0009273896
C      -1.4979041582     0.3572189178     1.2364315460
C      -0.4741456513    -1.4532173842    -0.0477279617
H      -1.6448175468     1.5122593178    -1.1421820518
H      -0.8706230914     0.2329094253    -2.0752275923
H      -2.4632919717    -0.0535918187    -1.3427418271
H      -1.6384435025     1.4370970211     1.2391595962
H      -0.8685071446     0.0972317602     2.0859797831
H      -2.4629835124    -0.1354631830     1.3380911566
H       0.1197609301    -1.7148767209     0.8257646259
H       0.1260240357    -1.6552068987    -0.9328106569
H      -1.3699796179    -2.0735739100    -0.0718614475
H       0.0899812256     0.5455279885     0.0189126464
F       1.1610058979     1.5691082307     0.0664439397
H       1.9243030549     0.9538928418     0.0262363918
F       2.7069602846     0.0282297620    -0.0299922920
H       4.2544085654    -0.0177764860    -0.0014811933
F       5.2211331467    -0.0364542522     0.0179441938
19
-29.521079
C      -1.4829744982     0.4364640807    -1.2109403294
N      -0.7990629293    -0.0304447054    -0.0012422057
C      -1.4806362961     0.3587375739     1.2371176710
C      -0.4616320339    -1.4551772053    -0.0480417737
H      -1.6256622220     1.5124812315    -1.1437892770
H      -0.8551885750     0.2309499764    -2.0758373331
H      -2.4492627512    -0.0517262240    -1.3432467659
H      -1.6185244550     1.4375089835     1.2403075635
H      -0.8525102699     0.0954480978     2.0859320812
H      -2.4487002419    -0.1330744010     1.3386797737
H       0.1306637737    -1.7206020670     0.8242275802
H       0.1372099031    -1.6609457616    -0.9318984288
H      -1.3632735806    -2.0709933006    -0.0721723609
H       0.0995951857     0.5419510126     0.0186596238
F       1.1588454627     1.6038529585     0.0692076718
H       1.9014351074     0.9631712917     0.0274574072
F       2.6433419128    -0.0111955415    -0.0299233115
H       4.1991770657    -0.0276062736    -0.0025442699
F       5.1671594418    -0.0187997266     0.0180466834
19
-29.521370
C      -1.4673842128     0.4361804599    -1.2116802304
N      -0.7839504909    -0.0314931274    -0.0015044779
C      -1.4646977800     0.3586638079     1.2374897287
C      -0.4510500697    -1.4576431244    -0.0483381565
H      -1.6065533933     1.5133736639    -1.1454980775
H      -0.8396693354     0.2288636172    -2.0766684259
H      -2.4341621453    -0.0494829395    -1.3432144924
H      -1.5986598512     1.4385863594     1.2415994863
H      -0.8364286780     0.0935287403     2.0861097619
H      -2.4333451292    -0.1302813798     1.3387597135
H       0.1420295531    -1.7261894784     0.8230820749
H       0.1488812918    -1.6665325822    -0.9313827152
H      -1.3555481709    -2.0675110296    -0.0724441935
H       0.1107407410     0.5384223894     0.0183908252
F       1.1596744988     1.6360256946     0.0717390996
H       1.8776269288     0.9740244501     0.0288643815
F       2.5788574508    -0.0496226940    -0.0297769629
H       4.1432685672    -0.0377303659    -0.0036099621
F       5.1103702255    -0.0011824615     0.0180826227
19
-29.521668
C      -1.4510037193     0.4363339793    -1.2123233699
N      -0.7687152100    -0.0326743914    -0.0017674391
C      -1.4479607717     0.3590407285     1.2377937844
C      -0.4395985746    -1.4598514931    -0.0486275331
H      -1.5871590195     1.5139207649    -1.1473298133
H      -0.8241002606     0.2266306919    -2.0773577054
H      -2.4189939353    -0.0474288748    -1.3429100474
H      -1.5785116356     1.4393146632     1.2429877005
H      -0.8202995068     0.0914846218     2.0861354357
H      -2.4179222831    -0.1276520434     1.3385602829
H       0.1534108785    -1.7315349275     0.8217815105
H       0.1605682192    -1.6718889130    -0.9306828639
H      -1.3478670519    -2.0641221053    -0.0727203129
H       0.1235151429     0.5346155885     0.0180788025
F       1.1619461340     1.6672533100     0.0741460169
H       1.8535782443     0.9856501519     0.0304342128
F       2.5128736486    -0.0874167179    -0.0295832868
H       4.0852205560    -0.0482188474    -0.0046671316
F       5.0510191447     0.0165438137     0.0180517572
19
-29.522103
C      -1.4345509672     0.4355888509    -1.2126282395
N      -0.7511031445    -0.0327136872    -0.0019880277
C      -1.4311599562     0.3585627422     1.2377085016
C      -0.4290246677    -1.4621837501    -0.0489021669
H      -1.5671830362     1.5147022738    -1.1492644445
H      -0.8080655884     0.2239604001    -2.0780159072
H      -2.4025632551    -0.0451339206    -1.3418705288
H      -1.5577931046     1.4402876077     1.2444884721
H      -0.8037133470     0.0890379869     2.0861201245
H      -2.4012219250    -0.1247131021     1.3376555268
H       0.1652983373    -1.7361922103     0.8208339430
H       0.1727775660    -1.6765385187    -0.9302641325
H      -1.3389222717    -2.0605206530    -0.0729818180
H       0.1392994677     0.5282667074     0.0175539815
F       1.1665494043     1.6971796691     0.0763050043
H       1.8311001634     0.9981349807     0.0323373710
F       2.4434800053    -0.1223798178    -0.0292467630
H       4.0225565632    -0.0594974410    -0.0056360853
F       4.9842397563     0.0341518821     0.0177951883
19
-29.522542
C      -1.4164190137     0.4362104335    -1.2128782713
N      -0.7349353995    -0.0342069341    -0.0022630878
C      -1.4126482377     0.3594635152     1.2376526221
C      -0.4163304565    -1.4638095640    -0.0491600451
H      -1.5469048483     1.5148644582    -1.1512845537
H      -0.7919998068     0.2211519349    -2.0784920791
H      -2.3865628549    -0.0433145701    -1.3406122567
H      -1.5367771522     1.4406407962     1.2460313144
H      -0.7871005638     0.0864745453     2.0859155625
H      -2.3849609574    -0.1222289587     1.3365045468
H       0.1770078721    -1.7406435981     0.8195398516
H       0.1848019764    -1.6810023389    -0.9294670179
H      -1.3306878237    -2.0574115537    -0.0732646368
H       0.1566753431     0.5214482569     0.0169710073
F       1.1709759783     1.7282319830     0.0785132636
H       1.8095373947     1.0103871256     0.0342742971
F       2.3729532628    -0.1570268418    -0.0288794603
H       3.9567933113    -0.0710772002    -0.0066111779
F       4.9165819758     0.0518485108     0.0175101213
19
-29.522978
C      -1.3987876515     0.4362108422    -1.2131236616
N      -0.7178830175    -0.0350845765    -0.0025164369
C      -1.3946431364     0.3597484520     1.2375492049
C      -0.4045545893    -1.4658828059    -0.0494259085
H      -1.5264720061     1.5153560400    -1.1532485874
H      -0.7757269094     0.2182811458    -2.0790430896
H      -2.3700410762    -0.0412389504    -1.3392268293
H      -1.5156061175     1.4413344179     1.2475367241
H      -0.7702787363     0.0838522151     2.0857878140
H      -2.3681674383    -0.1194736165     1.3352442735
H       0.1889166287    -1.7450171463     0.8184600028
H       0.1970312426    -1.6853776142    -0.9288741018
H      -1.3219249779    -2.0541309325    -0.0735363722
H       0.1742364072     0.5137664512     0.0163302399
F       1.1762997209     1.7586093431     0.0806690142
H       1.7877996377     1.0233971650     0.0362787630
F       2.3018613598    -0.1909684283    -0.0284756346
H       3.8908397252    -0.0827017483    -0.0075538341
F       4.8471009345     0.0693197466     0.0171684198
19
-29.523457
C      -1.3805889220     0.4362682597    -1.2132958921
N      -0.7008060694    -0.0361924203    -0.0027799289
C      -1.3760540313     0.3601153331     1.2373695615
C      -0.3927111220    -1.4680856938    -0.0496890108
H      -1.5054534805     1.5158946967    -1.1552135521
H      -0.7590353601     0.2152402135    -2.0795642919
H      -2.3530177266    -0.0390746540    -1.3375717098
H      -1.4938428577     1.4420903043     1.2490321036
H      -0.7530319864     0.0810864261     2.0856209582
H      -2.3508586543    -0.1165905355     1.3337250168
H       0.2010373114    -1.7492352573     0.8174105746
H       0.2094754756    -1.6896025021    -0.9282836330
H      -1.3129399021    -2.0509016207    -0.0738057566
H       0.1934580167     0.5043492692     0.0155587920
F       1.1834571091     1.7882487841     0.0827625008
H       1.7658945088     1.0380265454     0.0384397614
F       2.2286133372    -0.2235298686    -0.0279745762
H       3.8229136128    -0.0946305772    -0.0084590624
F       4.7734907409     0.0865232974     0.0167181448
19
-29.524299
C      -1.3606652801     0.4363206678    -1.2132364800
N      -0.6826235928    -0.0377279616    -0.0030678665
C      -1.3556718210     0.3605656275     1.2369292561
C      -0.3811103144    -1.4710848669    -0.0499481805
H      -1.4821951754     1.5165964161    -1.1571599993
H      -0.7407740473     0.2114416846    -2.0798853892
H      -2.3340370674    -0.0365398278    -1.3348226382
H      -1.4698239837     1.4430728962     1.2504629572
H      -0.7341959091     0.0776733605     2.0852172612
H      -2.3315308636    -0.1131857377     1.3311485112
H       0.2137825614    -1.7527429838     0.8164159000
H       0.2225395540    -1.6931497882    -0.9276230913
H      -1.3033826684    -2.0481783516    -0.0740694020
H       0.2196967355     0.4862266644     0.0141773589
F       1.1944103509     1.8196407135     0.0848812458
H       1.7480528612     1.0555204563     0.0410105736
F       2.1477450919    -0.2492996966    -0.0270480662
H       3.7435180483    -0.1080856629    -0.0092853363
F       4.6862655199     0.1029363902     0.0159033856
19
-29.525399
C      -1.3369757765     0.4380203431    -1.2129492094
N      -0.6619356020    -0.0422207019    -0.0035535589
C      -1.3314027444     0.3627758422     1.2363465564
C      -0.3684046909    -1.4740477463    -0.0501587247
H      -1.4563122519     1.5169796037    -1.1587800274
H      -0.7213136367     0.2070739446    -2.0795203299
H      -2.3151727547    -0.0339818408    -1.3315532187
H      -1.4431465130     1.4438267423     1.2514776454
H      -0.7141126197     0.0738559195     2.0840951165
H      -2.3122198080    -0.1096432818     1.3280384476
H       0.2254237500    -1.7563109647     0.8152102349
H       0.2344350690    -1.6968513551    -0.9266641784
H      -1.2964008860    -2.0488014739    -0.0743927346
H       0.2532953792     0.4567756737     0.0121046166
F       1.2076548336     1.8566080607     0.0873472908
H       1.7343496412     1.0793425910     0.0440461837
F       2.0641070658    -0.2684147461    -0.0258039147
H       3.6478785856    -0.1228780596    -0.0100846110
F       4.5902529593     0.1178914493     0.0147944159
19
-29.526565
C      -1.3163482383     0.4363922952    -1.2118861827
N      -0.6422346477    -0.0441018659    -0.0038623779
C      -1.3101992834     0.3617178790     1.2346933464
C      -0.3611185462    -1.4809501215    -0.0504940597
H      -1.4300294184     1.5186183897    -1.1599795051
H      -0.7012830570     0.2025558905    -2.0798536135
H      -2.2936709303    -0.0299214905    -1.3277172904
H      -1.4160621686     1.4459045303     1.2521374169
H      -0.6934264055     0.0698827459     2.0836729411
H      -2.2902135210    -0.1045569932     1.3244536743
H       0.2370991972    -1.7602743704     0.8149163032
H       0.2463544421    -1.7009458486    -0.9266124190
H      -1.2869309571    -2.0482077425    -0.0746125443
H       0.2894395893     0.4247305681     0.0098691636
F       1.2233545024     1.8915708962     0.0896771518
H       1.7206536793     1.1078451934     0.0473480431
F       1.9824876499    -0.2844398908    -0.0244763239
H       3.5563465197    -0.1359508208    -0.0106755056
F       4.4857815935     0.1301307559     0.0134017816
19
-29.527360
C      -1.2933263742     0.4376781051    -1.2112694258
N      -0.6254376929    -0.0492812936    -0.0043354879
C      -1.2865411153     0.3635769327     1.2337288882
C      -0.3512879433    -1.4863286852    -0.0507271749
H      -1.4035484749     1.5185940772    -1.1609620591
H      -0.6820593790     0.1978909788    -2.0794110313
H      -2.2738890898    -0.0265275205    -1.3235785658
H      -1.3888047203     1.4463247767     1.2524560905
H      -0.6735603590     0.0658617572     2.0824497002
H      -2.2699035007    -0.1001145239     1.3205165576
H       0.2467495552    -1.7645873888     0.8140344009
H       0.2561865682    -1.7054898917    -0.9259638812
H      -1.2807907160    -2.0498656599    -0.0748616665
H       0.3291599579     0.3883056761     0.0073954469
F       1.2382654912     1.9303793962     0.0921796567
H       1.7121546427     1.1367341512     0.0506908614
F       1.9048196720    -0.2952202206    -0.0230189251
H       3.4600154467    -0.1493368314    -0.0112530464
F       4.3817980316     0.1414061642     0.0119296616
19
-29.528223
C      -1.2772622310     0.4349233841    -1.2099557256
N      -0.6108526078    -0.0510312657    -0.0046217868
C      -1.2698891171     0.3614494275     1.2317787451
C      -0.3532539698    -1.4957376577    -0.0510161191
H      -1.3798013431     1.5202670439    -1.1604400939
H      -0.6656232788     0.1933600179    -2.0791242371
H      -2.2556519249    -0.0213234623    -1.3193089567
H      -1.3644068891     1.4485499866     1.2514089351
H      -0.6564821969     0.0620310420     2.0815072004
H      -2.2510466843    -0.0939462019     1.3165589196
H       0.2510680835    -1.7701842543     0.8148070333
H       0.2604879464    -1.7114163943    -0.9269001078
H      -1.2766639796    -2.0532691117    -0.0749123087
H       0.3686835037     0.3418087309     0.0045225784
F       1.2579850968     1.9592863181     0.0939618161
H       1.7115205741     1.1773463344     0.0544737659
F       1.8542576937    -0.2874767693    -0.0213541064
H       3.3731427357    -0.1597537702    -0.0115015910
F       4.2837885886     0.1451166020     0.0101160392
19
-29.529047
C      -1.2577621978     0.4362836523    -1.2088543998
N      -0.6001893121    -0.0588612139    -0.0052010496
C      -1.2496789391     0.3634495168     1.2303335875
C      -0.3516506758    -1.5033675141    -0.0511509666
H      -1.3554884839     1.5195586376    -1.1593726480
H      -0.6501104077     0.1882595735    -2.0779278841
H      -2.2407527440    -0.0171360324    -1.3150566142
H      -1.3394675164     1.4484276073     1.2496216223
H      -0.6403024496     0.0577581542     2.0795776187
H      -2.2354698103    -0.0888020558     1.3125329100
H       0.2507653589    -1.7772941339     0.8145327308
H       0.2600451501    -1.7190622285    -0.9268619398
H      -1.2789317374    -2.0613462691    -0.0750194439
H       0.4131094622     0.2862622705     0.0012371138
F       1.2695046517     2.0079087803     0.0967084488
H       1.7271141315     1.2109543604     0.0579678683
F       1.8142627513    -0.2709862161    -0.0195354500
H       3.2777323941    -0.1701511960    -0.0116913656
F       4.1872703745     0.1481443066     0.0081598614
19
-29.529603
C      -1.2568639415     0.4375570817    -1.2089892813
N      -0.6005020365    -0.0618007934    -0.0053569971
C      -1.2487147763     0.3647497505     1.2305319942
C      -0.3526013030    -1.5036992429    -0.0511118490
H      -1.3546101665     1.5191334766    -1.1587546413
H      -0.6505091464     0.1880536248    -2.0775336712
H      -2.2425852110    -0.0166614426    -1.3154963087
H      -1.3385792094     1.4480622297     1.2489175982
H      -0.6406404926     0.0576512655     2.0791282723
H      -2.2372366048    -0.0883499089     1.3129891113
H       0.2469821501    -1.7791909331     0.8143869072
H       0.2561689433    -1.7211001346    -0.9267978450
H      -1.2826837363    -2.0639354170    -0.0749921949
H       0.4135870953     0.2806818498     0.0010403359
F       1.2723363234     2.0061792001     0.0966345652
H       1.7297657965     1.2225876809     0.0585601482
F       1.8228553986    -0.2662737069    -0.0195152343
H       3.2750640145    -0.1699970204    -0.0116536747
F       4.1887669027     0.1463524402     0.0080127649
19
-29.530719
C      -1.2610075914     0.4364197109    -1.2088488180
N      -0.6019635532    -0.0658400300    -0.0055301296
C      -1.2528308456     0.3636183768     1.2302325441
C      -0.3627201354    -1.5083448697    -0.0511804867
H      -1.3559194239     1.5196474477    -1.1565130293
H      -0.6539958200     0.1881389629    -2.0773156240
H      -2.2483081754    -0.0144286275    -1.3176673949
H      -1.3399489794     1.4486894876     1.2466324817
H      -0.6440078567     0.0578196586     2.0788468309
H      -2.2428257815    -0.0863900535     1.3152327766
H       0.2356554572    -1.7849504585     0.8152117242
H       0.2445804108    -1.7271511516    -0.9279091816
H      -1.2909497622    -2.0691776811    -0.0747995865
H       0.4073319553     0.2725313321     0.0010063082
F       1.2707750690     2.0072498673     0.0966808994
H       1.7440118533     1.2428377200     0.0592967246
F       1.8556179859    -0.2549229271    -0.0198412152
H       3.2876060302    -0.1652625420    -0.0113838499
F       4.2088991629     0.1395157771     0.0078490259
19
-29.532160
C      -1.2632082526     0.4355591748    -1.2079187881
N      -0.6058707424    -0.0763745264    -0.0060077230
C      -1.2548132613     0.3629283241     1.2289771394
C      -0.3798618305    -1.5203920460    -0.0513529674
H      -1.3520561873     1.5188954842    -1.1515810440
H      -0.6574267597     0.1870086581    -2.0769071140
H      -2.2552056649    -0.0086472163    -1.3204326561
H      -1.3360673094     1.4483032794     1.2412999381
H      -0.6470534076     0.0570357583     2.0780552018
H      -2.2492988236    -0.0809019136     1.3181884711
H       0.2126761622    -1.7992324669     0.8164670448
H       0.2210717393    -1.7421688409    -0.9298967241
H      -1.3101466730    -2.0817763708    -0.0744444799
H       0.4103353813     0.2449291168     0.0001904968
F       1.2661408143     2.0273019090     0.0977947374
H       1.7796958686     1.2877173836     0.0614076799
F       1.9022554748    -0.2292622350    -0.0200670984
H       3.2927856033    -0.1569155937    -0.0108286414
F       4.2260478686     0.1259921216     0.0070565273
19
-29.532983
C      -1.2660799957     0.4335971284    -1.2071050064
N      -0.6084297336    -0.0843597541    -0.0063377979
C      -1.2575844873     0.3610887599     1.2277925543
C      -0.3976285711    -1.5324463088    -0.0515805610
H      -1.3491509618     1.5179265141    -1.1467770084
H      -0.6615622072     0.1863014463    -2.0771016658
H      -2.2600630692    -0.0026740098    -1.3222091155
H      -1.3332039451     1.4476422885     1.2361043473
H      -0.6508951868     0.0565544022     2.0778980513
H      -2.2538440165    -0.0752075418     1.3201550886
H       0.1928679542    -1.8132596214     0.8182368624
H       0.2008143871    -1.7567651905    -0.9323941418
H      -1.3277900819    -2.0911758789    -0.0740566681
H       0.4146274565     0.2252281058    -0.0003545824
F       1.2593589172     2.0452998862     0.0988511317
H       1.8117505255     1.3248642693     0.0629910988
F       1.9310690739    -0.2074905174    -0.0203291856
H       3.3067069240    -0.1479678014    -0.0102966354
F       4.2490370178     0.1128438233     0.0065132341
19
-29.533815
C      -1.2642550813     0.4315939498    -1.2052932062
N      -0.6086142274    -0.0938920109    -0.0067786662
C      -1.2555902995     0.3593532696     1.2254981413
C      -0.4153257028    -1.5471269111    -0.0518426675
H      -1.3410744205     1.5161673766    -1.1409923914
H      -0.6635521960     0.1845956708    -2.0779513473
H      -2.2614072719     0.0049089530    -1.3222024877
H      -1.3251092389     1.4463429725     1.2296816576
H      -0.6524862161     0.0551749526     2.0782006315
H      -2.2548040123    -0.0677016289     1.3204021651
H       0.1715348806    -1.8312481508     0.8195998941
H       0.1789878896    -1.7754568345    -0.9346855590
H      -1.3493256095    -2.1010789197    -0.0735960972
H       0.4305385005     0.1971120238    -0.0014889434
F       1.2569876235     2.0712594456     0.1004507074
H       1.8437535782     1.3728092894     0.0653143621
F       1.9386063579    -0.1814542982    -0.0202412801
H       3.3118357123    -0.1390991721    -0.0097463085
F       4.2592997337     0.0977400224     0.0056713953
19
-29.534818
C      -1.2595900951     0.4294776392    -1.2032662071
N      -0.6053881431    -0.1045331860    -0.0072987332
C      -1.2507365482     0.3575641780     1.2229215584
C      -0.4333611920    -1.5622119466    -0.0521196973
H      -1.3300647241     1.5140782198    -1.1346949299
H      -0.6642555476     0.1823305756    -2.0792112290
H      -2.2605158219     0.0130034098    -1.3208223826
H      -1.3140668657     1.4447817887     1.2226218025
H      -0.6527608312     0.0532650398     2.0788195296
H      -2.2535355182    -0.0595504035     1.3192927315
H       0.1503493979    -1.8514381120     0.8206980657
H       0.1572936242    -1.7963756925    -0.9368163924
H      -1.3719647419    -2.1096178246    -0.0730708251
H       0.4520838005     0.1660740012    -0.0028941651
F       1.2584651278     2.1018058099     0.1023728687
H       1.8718276636     1.4243594863     0.0679045252
F       1.9292858022    -0.1544110608    -0.0199554997
H       3.3129394449    -0.1307298240    -0.0092463969
F       4.2639951681     0.0821279018     0.0047653767
19
-29.535938
C      -1.2537013079     0.4275284928    -1.2010809999
N      -0.6013977971    -0.1163988153    -0.0078991841
C      -1.2446614846     0.3559543111     1.2201751507
C      -0.4506604933    -1.5763799565    -0.0523518188
H      -1.3180263131     1.5119411507    -1.1279932623
H      -0.6647140602     0.1798211438    -2.0806852187
H      -2.2598345352     0.0208508355    -1.3189029767
H      -1.3020182746     1.4432074842     1.2151166374
H      -0.6527938548     0.0511120120     2.0796294038
H      -2.2525063840    -0.0516002650     1.3176328803
H       0.1281115922    -1.8729518263     0.8211201446
H       0.1345134390    -1.8186631120    -0.9383420334
H      -1.3958654042    -2.1168442352    -0.0724840450
H       0.4736382652     0.1351307406    -0.0043161635
F       1.2660445896     2.1293041055     0.1041837994
H       1.8924798812     1.4819919727     0.0707610364
F       1.9160462553    -0.1272187246    -0.0196567275
H       3.3155508213    -0.1226097206    -0.0088111136
F       4.2697950651     0.0658244068     0.0039044909
19
-29.536795
C      -1.2480512073     0.4251447342    -1.1989270419
N      -0.5979680006    -0.1275630141    -0.0084599620
C      -1.2388476545     0.3538840537     1.2174399976
C      -0.4670349695    -1.5895606030    -0.0525765439
H      -1.3061765634     1.5097411762    -1.1214610867
H      -0.6648731247     0.1771873238    -2.0822591670
H      -2.2586823599     0.0278351879    -1.3166112586
H      -1.2901808486     1.4415387262     1.2078120546
H      -0.6525680395     0.0487805797     2.0805626777
H      -2.2510523437    -0.0444923757     1.3155603536
H       0.1073047780    -1.8938511061     0.8212656757
H       0.1131820571    -1.8402788445    -0.9395735710
H      -1.4180459830    -2.1220184539    -0.0718934187
H       0.4941669624     0.1071851185    -0.0056277765
F       1.2679257577     2.1630872028     0.1063286991
H       1.9150774399     1.5298337397     0.0730865416
F       1.9006354554    -0.1024984869    -0.0193925738
H       3.3194195405    -0.1147799139    -0.0084462653
F       4.2757691038     0.0508249552     0.0031726654
19
-29.537546
C      -1.2422831633     0.4225546470    -1.1967701060
N      -0.5948687106    -0.1389578353    -0.0090281741
C      -1.2329170061     0.3516121473     1.2146759432
C      -0.4836715225    -1.6027707908    -0.0527979974
H      -1.2936324637     1.5073711326    -1.1146826922
H      -0.6648417944     0.1743651882    -2.0838703660
H      -2.2572339475     0.0348132665    -1.3140048480
H      -1.2776611565     1.4397172790     1.2002303722
H      -0.6521537684     0.0462686615     2.0815124100
H      -2.2493067303    -0.0373629305     1.3131738058
H       0.0860441785    -1.9154771425     0.8212678796
H       0.0913752414    -1.8626331060    -0.9406993685
H      -1.4406841081    -2.1262265912    -0.0712615634
H       0.5149819070     0.0796309227    -0.0069414827
F       1.2734299717     2.1953149488     0.1084156116
H       1.9332914977     1.5811850358     0.0755707086
F       1.8841926941    -0.0777820807    -0.0191298220
H       3.3242806066    -0.1070703867    -0.0081187361
F       4.2816582745     0.0354476343     0.0024584256
19
-29.538170
C      -1.2367490222     0.4195238687    -1.1948106547
N      -0.5933599160    -0.1505011844    -0.0095845237
C      -1.2272285008     0.3488801364     1.2120853165
C      -0.4997582584    -1.6152109544    -0.0530063915
H      -1.2803584922     1.5044846686    -1.1078162683
H      -0.6643719486     0.1711503749    -2.0853087572
H      -2.2552995037     0.0411168974    -1.3109923888
H      -1.2644363784     1.4373707365     1.1925338863
H      -0.6513286851     0.0433565512     2.0822755189
H      -2.2470983805    -0.0308710427     1.3103510852
H       0.0651393846    -1.9372444920     0.8209758167
H       0.0699022000    -1.8850987443    -0.9415463876
H      -1.4628644193    -2.1282044854    -0.0705947941
H       0.5353515339     0.0549131032    -0.0081695656
F       1.2779956915     2.2310537099     0.1107141901
H       1.9492997056     1.6292361504     0.0778498192
F       1.8678771849    -0.0549095554    -0.0189108330
H       3.3303068006    -0.0998484010    -0.0078871688
F       4.2869810042     0.0208026624     0.0018421008
19
-29.538595
C      -1.2310671345     0.4155522050    -1.1932036741
N      -0.5922604220    -0.1629580769    -0.0101741875
C      -1.2214037554     0.3451989693     1.2097821257
C      -0.5162623811    -1.6272410282    -0.0531781111
H      -1.2640888683     1.5001868199    -1.1003327604
H      -0.6628352433     0.1665495566    -2.0861587410
H      -2.2532219622     0.0465182817    -1.3074341847
H      -1.2482709773     1.4336449788     1.1840782525
H      -0.6494684850     0.0391102070     2.0823528772
H      -2.2447710882    -0.0252035656     1.3069431008
H       0.0429706410    -1.9607485186     0.8201206167
H       0.0470714855    -1.9092877616    -0.9419508449
H      -1.4868947006    -2.1256711624    -0.0698010532
H       0.5551991694     0.0351295719    -0.0092847636
F       1.2919340449     2.2673525452     0.1131218377
H       1.9506681592     1.6835508705     0.0803832534
F       1.8519965175    -0.0339912804    -0.0187615346
H       3.3371956932    -0.0942324957    -0.0079094258
F       4.2935093073     0.0065398836     0.0014072170
19
-29.539738
C      -1.2254776877     0.4103946140    -1.1918577064
N      -0.5925255076    -0.1745817975    -0.0107019117
C      -1.2157300740     0.3402756857     1.2076939813
C      -0.5300069753    -1.6363994657    -0.0533025549
H      -1.2466794295     1.4947475435    -1.0930490822
H      -0.6601805868     0.1607813692    -2.0867681348
H      -2.2503094673     0.0494624149    -1.3029180785
H      -1.2310458934     1.4287188724     1.1757982049
H      -0.6466035190     0.0336209562     2.0821799013
H      -2.2417277213    -0.0219133118     1.3024632031
H       0.0231901839    -1.9836219934     0.8183267183
H       0.0266147240    -1.9327061895    -0.9414273561
H      -1.5089955748    -2.1165049056    -0.0689445710
H       0.5722679959     0.0253537465    -0.0100694827
F       1.2953338621     2.3175151605     0.1163797575
H       1.9512068403     1.7190313423     0.0817758615
F       1.8318584611    -0.0193245362    -0.0187116971
H       3.3483470595    -0.0901875398    -0.0082252634
F       4.3004633099    -0.0046619659     0.0013582109
19
-29.540405
C      -1.2196846725     0.4050346393    -1.1903799866
N      -0.5917030930    -0.1855522577    -0.0112055904
C      -1.2098629038     0.3351695846     1.2054652609
C      -0.5442024548    -1.6463083347    -0.0534404206
H      -1.2287593213     1.4891047695    -1.0858227390
H      -0.6573763382     0.1544567549    -2.0872270287
H      -2.2476614885     0.0524489453    -1.2986546906
H      -1.2133142180     1.4235958703     1.1675480422
H      -0.6435935545     0.0276025828     2.0818162637
H      -2.2389410470    -0.0185864902     1.2982359118
H       0.0029558604    -2.0066996895     0.8166797576
H       0.0056942413    -1.9563236861    -0.9410812714
H      -1.5321720931    -2.1069936693    -0.0680672958
H       0.5892367350     0.0158988679    -0.0108519880
F       1.3014379951     2.3671267682     0.1196261686
H       1.9480812445     1.7565566905     0.0832591252
F       1.8126385406    -0.0040187257    -0.0186448832
H       3.3585872160    -0.0866868491    -0.0086010101
F       4.3086393517    -0.0158257711     0.0013463741
19
-29.540864
C      -1.2137901038     0.3996260979    -1.1888263618
N      -0.5898180539    -0.1961934520    -0.0116882972
C      -1.2039034213     0.3300356031     1.2031763914
C      -0.5588653006    -1.6568882774    -0.0536067382
H      -1.2107214229     1.4832230597    -1.0790298498
H      -0.6545139516     0.1473715423    -2.0873966631
H      -2.2453564794     0.0555425614    -1.2949724484
H      -1.1954607174     1.4182244420     1.1597159368
H      -0.6405328781     0.0208613838     2.0811222325
H      -2.2364882731    -0.0151827702     1.2945928268
H      -0.0175822269    -2.0293639845     0.8153419178
H      -0.0155358902    -1.9795023551    -0.9410400967
H      -1.5562472610    -2.0975496139    -0.0671875293
H       0.6059418888     0.0069002126    -0.0116183362
F       1.3077916894     2.4176432958     0.1229326858
H       1.9434375729     1.7934993948     0.0846975104
F       1.7962254354     0.0122194821    -0.0185517931
H       3.3678903305    -0.0838029663    -0.0090353645
F       4.3175290631    -0.0266636563     0.0013739769
19
-29.541361
C      -1.2076476327     0.3936909806    -1.1872914457
N      -0.5863722087    -0.2082617737    -0.0121826234
C      -1.1977051938     0.3244433024     1.2009287527
C      -0.5759227515    -1.6689344366    -0.0538570538
H      -1.1921776595     1.4765414932    -1.0741839186
H      -0.6515148690     0.1371797685    -2.0864905320
H      -2.2433754778     0.0595857604    -1.2933060424
H      -1.1770768468     1.4120175050     1.1537764157
H      -0.6373450254     0.0111760010     2.0792062369
H      -2.2343369498    -0.0109377254     1.2930138604
H      -0.0401545023    -2.0505976594     0.8149721520
H      -0.0388556838    -2.0011608189    -0.9419404150
H      -1.5831455150    -2.0882567887    -0.0662776691
H       0.6217138518    -0.0003399079    -0.0123221898
F       1.3166942140     2.4703968829     0.1263747633
H       1.9314931729     1.8306531054     0.0861164556
F       1.7925739749     0.0326784565    -0.0183653954
H       3.3775038191    -0.0829746715    -0.0096633491
F       4.3256512832    -0.0368994739     0.0014919978
19
-29.541752
C      -1.2015588846     0.3873839952    -1.1860542209
N      -0.5835391102    -0.2198697143    -0.0126741235
C      -1.1915541586     0.3184550466     1.1989558237
C      -0.5925860181    -1.6803249745    -0.0540589356
H      -1.1743790910     1.4701165996    -1.0702620870
H      -0.6485927278     0.1265346172    -2.0856811428
H      -2.2410085142     0.0638013227    -1.2919709272
H      -1.1594222309     1.4060172452     1.1488040701
H      -0.6342438208     0.0010415260     2.0774015735
H      -2.2318058841    -0.0065413275     1.2917742059
H      -0.0626879755    -2.0707499541     0.8146406333
H      -0.0621103584    -2.0217082147    -0.9428654737
H      -1.6091271178    -2.0797772329    -0.0654155580
H       0.6363976396    -0.0072244964    -0.0129800327
F       1.3202077500     2.5268684057     0.1300416912
H       1.9239559730     1.8608123324     0.0871364381
F       1.7916963295     0.0540862713    -0.0181376228
H       3.3856418908    -0.0823818599    -0.0102936514
F       4.3347163092    -0.0465395877     0.0016393398
19
-29.542174
C      -1.1949656694     0.3808368893    -1.1849476973
N      -0.5801906659    -0.2320273945    -0.0131839752
C      -1.1848849136     0.3122470195     1.1970876234
C      -0.6107764243    -1.6922635884    -0.0542812661
H      -1.1556097667     1.4632231230    -1.0670332683
H      -0.6454194648     0.1144608277    -2.0848153411
H      -2.2383768478     0.0686356172    -1.2909914505
H      -1.1407901487     1.3995379347     1.1444678469
H      -0.6308834464    -0.0104526711     2.0754628978
H      -2.2289935069    -0.0015281738     1.2909276273
H      -0.0870893341    -2.0913791050     0.8144579762
H      -0.0872925727    -2.0427183054    -0.9439763933
H      -1.6365768268    -2.0709640610    -0.0645053366
H       0.6508630654    -0.0138390107    -0.0136349328
F       1.3294411666     2.5804996468     0.1335149749
H       1.9089844370     1.8972275646     0.0885256858
F       1.7941042773     0.0779628405    -0.0178603398
H       3.3944261619    -0.0825992924    -0.0110123515
F       4.3440304798    -0.0568598612     0.0017977200
19
-29.542466
C      -1.1881987549     0.3744597703    -1.1840600377
N      -0.5768212567    -0.2444786668    -0.0137025257
C      -1.1780299964     0.3061974623     1.1954432092
C      -0.6294187366    -1.7040056697    -0.0545142196
H      -1.1368478598     1.4561756027    -1.0643480528
H      -0.6422072152     0.1020013040    -2.0841075551
H      -2.2354891804     0.0736467994    -1.2900645831
H      -1.1221571408     1.3928768954     1.1406643590
H      -0.6274832139    -0.0223208343     2.0736674193
H      -2.2259183592     0.0036654506     1.2901433523
H      -0.1119819753    -2.1118608397     0.8142737499
H      -0.1129874112    -2.0635629800    -0.9450659120
H      -1.6636608695    -2.0623636592    -0.0635981083
H       0.6649608359    -0.0203750480    -0.0142761676
F       1.3384237963     2.6340852479     0.1369731338
H       1.8938219704     1.9334001005     0.0899126070
F       1.7973460560     0.1026998138    -0.0175576773
H       3.4038508047    -0.0828647472    -0.0117238691
F       4.3527985065    -0.0673760020     0.0019408778
19
-29.542822
C      -1.1794326236     0.3684563335    -1.1851788826
N      -0.5737823621    -0.2588700805    -0.0142989519
C      -1.1690749550     0.3004091442     1.1957658466
C      -0.6521092908    -1.7145275938    -0.0547656024
H      -1.1176281147     1.4481086805    -1.0669734190
H      -0.6386621339     0.0859677256    -2.0850273924
H      -2.2296061121     0.0805720316    -1.2893982872
H      -1.1029814047     1.3849265449     1.1420659299
H      -0.6237256735    -0.0376544515     2.0733593744
H      -2.2197790735     0.0108221279     1.2897122761
H      -0.1424094119    -2.1310923262     0.8136905395
H      -0.1443989617    -2.0830178483    -0.9456452712
H      -1.6876079144    -2.0558335902    -0.0627216981
H       0.6766020696    -0.0258788888    -0.0147859981
F       1.3480408317     2.6853933836     0.1401815415
H       1.8740108964     1.9704147236     0.0914573655
F       1.8064503173     0.1355773400    -0.0170066542
H       3.4150830081    -0.0834811818    -0.0124041954
F       4.3610109089    -0.0802920741     0.0019734792
19
-29.543016
C      -1.1702873804     0.3613715860    -1.1861871411
N      -0.5701491534    -0.2700552193    -0.0147997703
C      -1.1597627352     0.2935592004     1.1959356190
C      -0.6718872710    -1.7246786782    -0.0549068621
H      -1.0988372061     1.4410268385    -1.0708658252
H      -0.6350200208     0.0696531316    -2.0863814456
H      -2.2239777848     0.0871358030    -1.2890737339
H      -1.0842066315     1.3778600597     1.1448024722
H      -0.6198803196    -0.0533025804     2.0734822106
H      -2.2138870865     0.0175992414     1.2895912585
H      -0.1721561624    -2.1492137119     0.8135095959
H      -0.1750571306    -2.1013262477    -0.9466932588
H      -1.7129147837    -2.0509040370    -0.0619281782
H       0.6871664772    -0.0305718758    -0.0152272882
F       1.3524753124     2.7399815604     0.1436090180
H       1.8583116801     1.9992219142     0.0925240196
F       1.8150924288     0.1690822948    -0.0163858476
H       3.4237356455    -0.0835526089    -0.0130417677
F       4.3712421220    -0.0928866708     0.0020369248
19
-29.543162
C      -1.1630808430     0.3559759811    -1.1871245187
N      -0.5662149417    -0.2767128574    -0.0151060875
C      -1.1524305539     0.2883537669     1.1962633083
C      -0.6858995512    -1.7315181551    -0.0549708806
H      -1.0845440554     1.4363095706    -1.0753732175
H      -0.6320759846     0.0568707737    -2.0877962641
H      -2.2197972338     0.0919814706    -1.2890739962
H      -1.0698879337     1.3730615379     1.1484731400
H      -0.6167708652    -0.0655884297     2.0739564070
H      -2.2094945457     0.0226043605     1.2897487833
H      -0.1941569753    -2.1621770385     0.8141359535
H      -0.1977340882    -2.1143544112    -0.9482546722
H      -1.7328879740    -2.0479862910    -0.0613638230
H       0.6940872845    -0.0331549487    -0.0154916138
F       1.3590781439     2.7732639522     0.1456387914
H       1.8421007463     2.0242509657     0.0936286304
F       1.8208886001     0.1952717276    -0.0158449050
H       3.4299883459    -0.0834202829    -0.0134783405
F       4.3788324250    -0.1030316924     0.0020333054
19
-29.543231
C      -1.1606271591     0.3549826571    -1.1879419615
N      -0.5637214899    -0.2786069617    -0.0151655306
C      -1.1499316158     0.2874083994     1.1969531571
C      -0.6908850716    -1.7326331901    -0.0550279183
H      -1.0794978511     1.4348981403    -1.0787589346
H      -0.6308885797     0.0521505842    -2.0885032635
H      -2.2182429542     0.0930694830    -1.2891469526
H      -1.0647947536     1.3715291507     1.1515729028
H      -0.6155155726    -0.0701541314     2.0743330502
H      -2.2078729797     0.0237514203     1.2898466353
H      -0.2003677587    -2.1658455105     0.8153080631
H      -0.2041903419    -2.1179223516    -0.9496862154
H      -1.7390012150    -2.0469741340    -0.0611924343
H       0.6955824762    -0.0325897208    -0.0154941941
F       1.3602578989     2.7817186328     0.1461221278
H       1.8364543653     2.0300107348     0.0939032522
F       1.8204533602     0.2046414984    -0.0155733789
H       3.4330922075    -0.0824603491    -0.0135027897
F       4.3796970349    -0.1069743518     0.0019543850
19
-29.543400
C      -1.1544700747     0.3526953006    -1.1904859611
N      -0.5586704177    -0.2812589474    -0.0152412568
C      -1.1436765138     0.2852066124     1.1992628960
C      -0.7005562295    -1.7349534259    -0.0551136884
H      -1.0671455813     1.4326216679    -1.0898044692
H      -0.6279204065     0.0405965539    -2.0903233892
H      -2.2139333472     0.0947658978    -1.2892640743
H      -1.0522654357     1.3688115609     1.1619867098
H      -0.6123709888    -0.0813589623     2.0753814055
H      -2.2034255869     0.0256083210     1.2899874490
H      -0.2134831954    -2.1724409632     0.8180544397
H      -0.2178338334    -2.1242000347    -0.9530394914
H      -1.7520693450    -2.0439207446    -0.0608189448
H       0.6978136448    -0.0286478062    -0.0153437088
F       1.3610394758     2.7966614742     0.1469063647
H       1.8229855099     2.0381459991     0.0943363545
F       1.8153695322     0.2273911714    -0.0147741798
H       3.4379777766    -0.0783497928    -0.0133940822
F       4.3826350165    -0.1173738821     0.0016876268
19
-29.543608
C      -1.1471523790     0.3503610761    -1.1940639510
N      -0.5550445768    -0.2827305600    -0.0152464242
C      -1.1362394047     0.2829582344     1.2026388974
C      -0.7090511754    -1.7363765050    -0.0551681605
H      -1.0522641939     1.4311027778    -1.1068520280
H      -0.6241382999     0.0264981272    -2.0926118385
H      -2.2078465743     0.0957157851    -1.2893797099
H      -1.0370928307     1.3665498171     1.1783555595
H      -0.6083622789    -0.0950662632     2.0767992985
H      -2.1972120183     0.0267827190     1.2901172178
H      -0.2263424304    -2.1769007784     0.8206432725
H      -0.2312490457    -2.1281920902    -0.9562645961
H      -1.7640971931    -2.0389426894    -0.0604173484
H       0.6981143105    -0.0203209886    -0.0149423925
F       1.3590597097     2.8064102668     0.1472760149
H       1.8069307337     2.0393846350     0.0945101010
F       1.8050633928     0.2546444324    -0.0136183944
H       3.4424942418    -0.0708417152    -0.0129802010
F       4.3844300127    -0.1310362808     0.0012046830
19
-29.543798
C      -1.1412681637     0.3489836768    -1.1978817303
N      -0.5549049846    -0.2819067307    -0.0151622953
C      -1.1302467461     0.2815929673     1.2063903192
C      -0.7128752076    -1.7351702919    -0.0551488598
H      -1.0397634611     1.4307702420    -1.1253526721
H      -0.6207135265     0.0142896250    -2.0942729504
H      -2.2019134952     0.0955842290    -1.2896984534
H      -1.0242644714     1.3653577243     1.1963679536
H      -0.6047497396    -0.1069419819     2.0777910894
H      -2.1912032327     0.0268832163     1.2904806762
H      -0.2332755743    -2.1763268559     0.8215617509
H      -0.2385577919    -2.1271380137    -0.9575832767
H      -1.7690258936    -2.0328767649    -0.0601311047
H       0.6949071792    -0.0090688078    -0.0143390113
F       1.3539933514     2.8037798734     0.1468312569
H       1.7930514954     2.0301756433     0.0942503669
F       1.7929137351     0.2773694505    -0.0124067562
H       3.4435949450    -0.0611983170    -0.0122911999
F       4.3843015822    -0.1441588840     0.0005948970
19
-29.543928
C      -1.1392227589     0.3486849413    -1.2002142759
N      -0.5574765597    -0.2791128348    -0.0150403433
C      -1.1281381158     0.2812457154     1.2087561811
C      -0.7111143243    -1.7320309087    -0.0550639408
H      -1.0342650678     1.4310088295    -1.1366451612
H      -0.6188916485     0.0083305972    -2.0944097468
H      -2.1989633427     0.0952189140    -1.2904103713
H      -1.0185644837     1.3650206665     1.2075132395
H      -0.6028648383    -0.1127177042     2.0776831231
H      -2.1882341934     0.0266598034     1.2913126251
H      -0.2324157641    -2.1719326263     0.8201042169
H      -0.2377728947    -2.1225020053    -0.9561797608
H      -1.7661665659    -2.0280944319    -0.0600413121
H       0.6893991238    -0.0005002585    -0.0138373278
F       1.3481565082     2.7926285901     0.1459399766
H       1.7863753223     2.0161626130     0.0937259487
F       1.7866713084     0.2870760339    -0.0116512875
H       3.4419213764    -0.0535913561    -0.0116473403
F       4.3815669186    -0.1515545788     0.0001055567
19
-29.544054
C      -1.1399304574     0.3492703362    -1.2017513054
N      -0.5607273046    -0.2742348789    -0.0148634039
C      -1.1288065691     0.2817326816     1.2104120113
C      -0.7054000058    -1.7264792205    -0.0549385006
H      -1.0333110666     1.4314806709    -1.1433432602
H      -0.6179206668     0.0059086426    -2.0933552327
H      -2.1985181114     0.0950443894    -1.2918618619
H      -1.0174896746     1.3650848531     1.2142946112
H      -0.6019266772    -0.1150302693     2.0766340416
H      -2.1877932129     0.0265649688     1.2929927497
H      -0.2252496309    -2.1645851464     0.8172363059
H      -0.2304906820    -2.1150394691    -0.9531191118
H      -1.7578397973    -2.0238548483    -0.0600823651
H       0.6808470699     0.0066263596    -0.0133700433
F       1.3410153838     2.7737868274     0.1446139398
H       1.7836749635     1.9976127450     0.0929729633
F       1.7856804331     0.2882620969    -0.0111492965
H       3.4371626997    -0.0464837054    -0.0109756990
F       4.3770233066    -0.1556670335    -0.0003465425
19
-29.544206
C      -1.1421261783     0.3501905459    -1.2031819799
N      -0.5631195807    -0.2668732848    -0.0146191589
C      -1.1309670582     0.2825198287     1.2120094202
C      -0.6967138253    -1.7185660901    -0.0547733434
H      -1.0341395786     1.4319086595    -1.1480264526
H      -0.6170013058     0.0038551947    -2.0912998770
H      -2.2000167130     0.0958092319    -1.2944850565
H      -1.0182322561     1.3651610521     1.2191814878
H      -0.6011052612    -0.1169509436     2.0746394482
H      -2.1892821822     0.0273819430     1.2960216360
H      -0.2134266293    -2.1550063266     0.8134784260
H      -0.2184649309    -2.1053983330    -0.9490624839
H      -1.7463997008    -2.0189401082    -0.0601725386
H       0.6678886204     0.0134580086    -0.0128683016
F       1.3315091918     2.7486609313     0.1429020460
H       1.7812026852     1.9741021597     0.0919779898
F       1.7904655611     0.2859023204    -0.0106691030
H       3.4300150256    -0.0380374441    -0.0101691270
F       4.3699141161    -0.1591773453    -0.0008830316
19
-29.544391
C      -1.1445919826     0.3514757156    -1.2050874477
N      -0.5627864582    -0.2574294502    -0.0143028324
C      -1.1333916378     0.2836570902     1.2141296679
C      -0.6862536164    -1.7087643275    -0.0546119976
H      -1.0346533547     1.4322850242    -1.1527049102
H      -0.6156290134    -0.0003217638    -2.0885891745
H      -2.2027878184     0.0980945692    -1.2984073316
H      -1.0186525249     1.3651765034     1.2240997315
H      -0.5998544405    -0.1209153987     2.0718879083
H      -2.1920115771     0.0297119082     1.3005541377
H      -0.1983959175    -2.1441767875     0.8100858600
H      -0.2032526862    -2.0944614302    -0.9453703038
H      -1.7340250362    -2.0126649623    -0.0602473143
H       0.6494485673     0.0204537024    -0.0122976008
F       1.3191594529     2.7187537808     0.1408762764
H       1.7754860086     1.9464170235     0.0907803026
F       1.8012345619     0.2839206978    -0.0100410345
H       3.4206131393    -0.0270889968    -0.0091825257
F       4.3603443337    -0.1641228985    -0.0015714114
19
-29.544568
C      -1.1448851820     0.3523180740    -1.2074466000
N      -0.5587640454    -0.2494635369    -0.0140326587
C      -1.1336355392     0.2844081453     1.2166553739
C      -0.6783640749    -1.7011931959    -0.0545321479
H      -1.0318194141     1.4323211613    -1.1580446153
H      -0.6136976607    -0.0085445840    -2.0862268943
H      -2.2048165246     0.1023882655    -1.3024842593
H      -1.0157023029     1.3648985039     1.2295283853
H      -0.5979820725    -0.1288133492     2.0691970570
H      -2.1939555098     0.0340665377     1.3053327785
H      -0.1869552470    -2.1366562752     0.8088618001
H      -0.1918370394    -2.0867674626    -0.9441034106
H      -1.7267295086    -2.0055216049    -0.0601807300
H       0.6292561559     0.0255585367    -0.0118089396
F       1.3066161866     2.6963894221     0.1393337045
H       1.7636187327     1.9237629368     0.0897593840
F       1.8166901954     0.2879950394    -0.0092449561
H       3.4124590276    -0.0154600724    -0.0082619668
F       4.3505038231    -0.1716865416    -0.0023013045
19
-29.544679
C      -1.1427480530     0.3528555404    -1.2090787571
N      -0.5540716923    -0.2469761901    -0.0139229833
C      -1.1314733250     0.2849595593     1.2183804719
C      -0.6757239266    -1.6996153023    -0.0545861307
H      -1.0274229771     1.4325809247    -1.1620371824
H      -0.6124831695    -0.0161852034    -2.0854615351
H      -2.2044157974     0.1064082397    -1.3042581175
H      -1.0112024127     1.3650249761     1.2334625804
H      -0.5967185382    -0.1362131707     2.0680347900
H      -2.1934958106     0.0381407025     1.3075354028
H      -0.1835327159    -2.1352737401     0.8106392900
H      -0.1886166483    -2.0852043867    -0.9460695167
H      -1.7263538130    -2.0009599376    -0.0600298564
H       0.6160837276     0.0263739664    -0.0116119442
F       1.2989538157     2.6901357123     0.1388774472
H       1.7511286334     1.9153511895     0.0893309611
F       1.8286438588     0.2951949394    -0.0086543721
H       3.4087927087    -0.0084876419    -0.0078119628
F       4.3446561354    -0.1781101775    -0.0027385850
19
-29.544771
C      -1.1394186800     0.3536328016    -1.2095032638
N      -0.5510592852    -0.2488337452    -0.0139383787
C      -1.1281514180     0.2858251838     1.2188979332
C      -0.6758103552    -1.7029000272    -0.0547157733
H      -1.0238892361     1.4338536646    -1.1642122988
H      -0.6126603124    -0.0199442486    -2.0862782114
H      -2.2016336349     0.1088767914    -1.3031071036
H      -1.0075850943     1.3663240638     1.2355724506
H      -0.5967714679    -0.1399228953     2.0686136067
H      -2.1907240021     0.0406509550     1.3064592163
H      -0.1850746052    -2.1376899291     0.8143733272
H      -0.1903936657    -2.0874715622    -0.9500545404
H      -1.7286867611    -2.0000304803    -0.0599115568
H       0.6104962663     0.0233883045    -0.0116637342
F       1.2953481317     2.6943965477     0.1391586092
H       1.7415208753     1.9171867968     0.0893343812
F       1.8337000545     0.3007180602    -0.0083855647
H       3.4083084125    -0.0065814101    -0.0077830296
F       4.3424847781    -0.1814788714    -0.0028560693
19
-29.544884
C      -1.1344717445     0.3598489509    -1.2102450889
N      -0.5461578405    -0.2433214395    -0.0136028153
C      -1.1232219195     0.2921131883     1.2203453805
C      -0.6584869630    -1.7011257421    -0.0548160584
H      -1.0213940921     1.4414678647    -1.1733864687
H      -0.6146651087    -0.0216785181    -2.0877500364
H      -2.1948441411     0.1134965639    -1.2987143715
H      -1.0047788737     1.3736041238     1.2452551192
H      -0.5985769153    -0.1417982468     2.0702174395
H      -2.1840721935     0.0454751371     1.3024035281
H      -0.1672286007    -2.1287980658     0.8197739902
H      -0.1726699504    -2.0781483286    -0.9553433804
H      -1.7104520949    -1.9981808913    -0.0600703478
H       0.5800482234     0.0193354101    -0.0112544748
F       1.2701394608     2.6647382520     0.1372581055
H       1.7174687308     1.8870886226     0.0878057471
F       1.8423608710     0.2987225855    -0.0074651548
H       3.3932334573     0.0060790778    -0.0067937190
F       4.3277696946    -0.1889185443    -0.0036173941
19
-29.544973
C      -1.1322647927     0.3586072270    -1.2080454743
N      -0.5477545687    -0.2509791788    -0.0139026804
C      -1.1210256942     0.2909730314     1.2179167587
C      -0.6651717228    -1.7080709585    -0.0548842458
H      -1.0204201542     1.4407262749    -1.1673359949
H      -0.6160271292    -0.0170414733    -2.0897045550
H      -2.1927243898     0.1132725935    -1.2944783473
H      -1.0039342582     1.3732178152     1.2390441977
H      -0.5998822862    -0.1373020117     2.0722802689
H      -2.1819458342     0.0452881512     1.2978081824
H      -0.1778736454    -2.1375171036     0.8204176476
H      -0.1834695096    -2.0871268455    -0.9562282385
H      -1.7174515432    -2.0036714866    -0.0600151968
H       0.5936641396     0.0108280077    -0.0117962183
F       1.2762624314     2.6895576770     0.1389766214
H       1.7192554769     1.9078693637     0.0886128080
F       1.8386176602     0.2986866217    -0.0079793627
H       3.3985758234    -0.0023709716    -0.0076044580
F       4.3335699971    -0.1849467335    -0.0030817125
19
-29.545025
C      -1.1324615514     0.3594356753    -1.2071843677
N      -0.5482367837    -0.2505153358    -0.0139119934
C      -1.1212234809     0.2917676038     1.2170874370
C      -0.6624816726    -1.7072743551    -0.0548220483
H      -1.0213433434     1.4416980367    -1.1655638289
H      -0.6168154497    -0.0123150920    -2.0904996557
H      -2.1923699322     0.1129983205    -1.2917800729
H      -1.0048927293     1.3741999092     1.2374229267
H      -0.6006985495    -0.1327121024     2.0733660539
H      -2.1815928955     0.0450997353     1.2950405577
H      -0.1747956450    -2.1364745901     0.8190039661
H      -0.1803168536    -2.0861930291    -0.9546791921
H      -1.7127073992    -2.0069101472    -0.0601452617
H       0.5944034989     0.0079991785    -0.0118544460
F       1.2726181952     2.6859510340     0.1388063148
H       1.7182777602     1.9058932473     0.0884696422
F       1.8363294294     0.2938951088    -0.0080838002
H       3.3963184224    -0.0036794408    -0.0076639192
F       4.3319889798    -0.1828637570    -0.0030083121
19
-29.545137
C      -1.1283904452     0.3606668508    -1.2059954851
N      -0.5454168116    -0.2508804670    -0.0140209136
C      -1.1170436417     0.2929672262     1.2157972587
C      -0.6587667445    -1.7058516093    -0.0547024701
H      -1.0133412990     1.4424844918    -1.1656381858
H      -0.6167362230    -0.0071152053    -2.0936121235
H      -2.1887357653     0.1165121781    -1.2830997431
H      -0.9969194859     1.3747954677     1.2375279130
H      -0.6006100202    -0.1275886976     2.0767736607
H      -2.1778413314     0.0490720437     1.2864690518
H      -0.1714595510    -2.1375095914     0.8148926479
H      -0.1771962202    -2.0874756505    -0.9506136364
H      -1.7046781805    -2.0134082749    -0.0602102916
H       0.5929927154    -0.0004642202    -0.0119597541
F       1.2552018588     2.6845719811     0.1388190958
H       1.6988017573     1.9015561712     0.0880311246
F       1.8356154737     0.2958457962    -0.0076744056
H       3.3884637190    -0.0025203513    -0.0076811592
F       4.3260601953    -0.1856581393    -0.0031025846
19
-29.545206
C      -1.1265340049     0.3622451141    -1.2054995733
N      -0.5425605014    -0.2496132962    -0.0140347288
C      -1.1151450963     0.2944824533     1.2153187027
C      -0.6542340601    -1.7043231384    -0.0546418782
H      -1.0086442421     1.4433968363    -1.1642458211
H      -0.6167406709    -0.0028530784    -2.0949869552
H      -2.1877019123     0.1193304469    -1.2775977672
H      -0.9922521566     1.3756552862     1.2362536591
H      -0.6006283305    -0.1234045354     2.0784162576
H      -2.1767559997     0.0521750002     1.2811330927
H      -0.1647532215    -2.1365766923     0.8126708296
H      -0.1705702548    -2.0866747287    -0.9483448389
H      -1.6980944295    -2.0180509411    -0.0602886282
H       0.5908221756    -0.0054946477    -0.0119831288
F       1.2404766672     2.6772870425     0.1384347468
H       1.6847168473     1.8955564754     0.0876023734
F       1.8373117732     0.2950124401    -0.0073854781
H       3.3826203876    -0.0016152373    -0.0076067196
F       4.3186670295    -0.1865347994    -0.0032141445
19
-29.545309
C      -1.1201592433     0.3626225167    -1.2056782355
N      -0.5360683055    -0.2516164181    -0.0141869131
C      -1.1086550831     0.2948771680     1.2153107410
C      -0.6549208646    -1.7054681047    -0.0546607348
H      -0.9919788476     1.4423522039    -1.1661273855
H      -0.6145013136    -0.0046328612    -2.0974376985
H      -2.1839248712     0.1263969057    -1.2696668131
H      -0.9755796941     1.3744420663     1.2378363242
H      -0.5983032932    -0.1250300627     2.0806928617
H      -2.1728382963     0.0597552343     1.2736039534
H      -0.1633344297    -2.1407759033     0.8106059797
H      -0.1696508417    -2.0909727557    -0.9466821510
H      -1.6983900190    -2.0221736167    -0.0600549953
H       0.5922033187    -0.0107954644    -0.0120042392
F       1.2165650891     2.6797832298     0.1386245898
H       1.6529865667     1.8944442008     0.0873140860
F       1.8405284383     0.3099188223    -0.0064432504
H       3.3758602666     0.0018986408    -0.0075227091
F       4.3101614237    -0.1950258018    -0.0035234103
19
-29.545409
C      -1.1151143115     0.3632499942    -1.2053649145
N      -0.5305131573    -0.2542435032    -0.0143061096
C      -1.1035794375     0.2955765045     1.2149283608
C      -0.6546269790    -1.7087238080    -0.0547639197
H      -0.9776509071     1.4415575463    -1.1654368564
H      -0.6129042815    -0.0066639656    -2.0983064871
H      -2.1813978442     0.1335010044    -1.2640268187
H      -0.9612664646     1.3737084298     1.2369014215
H      -0.5966162407    -0.1269467795     2.0813683185
H      -2.1702719275     0.0671935369     1.2683929968
H      -0.1600405148    -2.1441734419     0.8103872323
H      -0.1667560105    -2.0944257801    -0.9468323063
H      -1.7000338609    -2.0249250982    -0.0597975619
H       0.5958605810    -0.0138574604    -0.0120260742
F       1.1929930895     2.6803235661     0.1386772572
H       1.6256554440     1.8938975037     0.0871086908
F       1.8443170272     0.3224143216    -0.0056670743
H       3.3705766145     0.0044442219    -0.0074346674
F       4.3013691810    -0.2019067926    -0.0038014879
19
-29.545530
C      -1.1087732049     0.3635962811    -1.2043679958
N      -0.5245695766    -0.2589260331    -0.0144506554
C      -1.0972645394     0.2961035425     1.2138993353
C      -0.6541167762    -1.7143016795    -0.0549443810
H      -0.9596399905     1.4406014866    -1.1641558561
H      -0.6112670306    -0.0110506491    -2.0981842654
H      -2.1778735729     0.1430981303    -1.2589651984
H      -0.9432758189     1.3729373328     1.2352784293
H      -0.5948443547    -0.1311709236     2.0808859561
H      -2.1667663502     0.0770826547     1.2639226102
H      -0.1561633893    -2.1481718997     0.8113246299
H      -0.1633691649    -2.0984394587    -0.9482656232
H      -1.7027440947    -2.0262578860    -0.0593987803
H       0.6027616035    -0.0146852110    -0.0120040161
F       1.1616133843     2.6804078832     0.1386508541
H       1.5930895367     1.8934479797     0.0869302786
F       1.8473115908     0.3391838009    -0.0047051619
H       3.3641675926     0.0082272257    -0.0072481905
F       4.2917241560    -0.2116825768    -0.0042019692
19
-29.545663
C      -1.1032210304     0.3648123409    -1.2018050027
N      -0.5195152659    -0.2635552434    -0.0145434539
C      -1.0918318682     0.2975690592     1.2114761250
C      -0.6487059981    -1.7202429379    -0.0551315349
H      -0.9442217649     1.4406923307    -1.1592835892
H      -0.6111618513    -0.0135533684    -2.0966389774
H      -2.1744671372     0.1538468777    -1.2550745005
H      -0.9279402367     1.3734308741     1.2302406917
H      -0.5946310130    -0.1336203974     2.0791161375
H      -2.1634829014     0.0879804806     1.2607130569
H      -0.1473532117    -2.1496961356     0.8129252735
H      -0.1549207818    -2.0999959619    -0.9502098372
H      -1.7002124230    -2.0273630545    -0.0590599520
H       0.6100350801    -0.0143446671    -0.0119596017
F       1.1231885582     2.6727092952     0.1381139476
H       1.5629254374     1.8895969008     0.0866454861
F       1.8490921879     0.3502737569    -0.0039325309
H       3.3559805184     0.0117127417    -0.0069541466
F       4.2804437018    -0.2202528916    -0.0046375913
19
-29.545802
C      -1.0971192633     0.3657333058    -1.1983637376
N      -0.5149375863    -0.2682950873    -0.0146261640
C      -1.0858895484     0.2987713262     1.2081862457
C      -0.6411325770    -1.7255935516    -0.0552669632
H      -0.9294148699     1.4408766696    -1.1528565570
H      -0.6119533763    -0.0162079373    -2.0944584366
H      -2.1701096912     0.1657917684    -1.2522601166
H      -0.9132909301     1.3740884643     1.2236882793
H      -0.5953439955    -0.1362375741     2.0767135741
H      -2.1592655887     0.0999941642     1.2586495838
H      -0.1385251761    -2.1507500224     0.8143172974
H      -0.1464484255    -2.1011001577    -0.9518895108
H      -1.6940139805    -2.0279458244    -0.0587330278
H       0.6178333111    -0.0128511746    -0.0119006259
F       1.0793795898     2.6623979192     0.1373516893
H       1.5344729358     1.8861917264     0.0864514553
F       1.8480963006     0.3598249995    -0.0032875652
H       3.3476279929     0.0150205053    -0.0065964565
F       4.2700348786    -0.2297095194    -0.0051189637
19
-29.545931
C      -1.0913100755     0.3663472462    -1.1950508610
N      -0.5110170875    -0.2720098820    -0.0147002163
C      -1.0802203157     0.2995977791     1.2049671204
C      -0.6333206098    -1.7289471571    -0.0553005475
H      -0.9178418509     1.4407428446    -1.1458821862
H      -0.6133237702    -0.0185897065    -2.0927095830
H      -2.1653412523     0.1768201204    -1.2505734397
H      -0.9019624358     1.3743866601     1.2166387588
H      -0.5966937072    -0.1386040156     2.0747853342
H      -2.1545935782     0.1110233847     1.2576298859
H      -0.1327741202    -2.1522143341     0.8150889458
H      -0.1410310659    -2.1026380633    -0.9528530230
H      -1.6856341396    -2.0285962592    -0.0584895888
H       0.6237524737    -0.0119363697    -0.0118931397
F       1.0385953340     2.6533110596     0.1366205185
H       1.5128756044     1.8867292168     0.0865114408
F       1.8452965032     0.3662214613    -0.0029516746
H       3.3419843719     0.0165479351    -0.0063163216
F       4.2625597215    -0.2381919203    -0.0055214232
19
-29.546060
C      -1.0838775747     0.3658060446    -1.1932207405
N      -0.5064356147    -0.2752524157    -0.0148095951
C      -1.0728526831     0.2991640884     1.2030396953
C      -0.6286538277    -1.7306511814    -0.0552477551
H      -0.9044564739     1.4392546618    -1.1415770678
H      -0.6137930141    -0.0242417143    -2.0921777807
H      -2.1591401723     0.1879223913    -1.2492943880
H      -0.8888876363     1.3731289708     1.2121085024
H      -0.5971640815    -0.1441249895     2.0738918801
H      -2.1483762374     0.1221665172     1.2569956696
H      -0.1337748196    -2.1565013248     0.8151908938
H      -0.1425444757    -2.1069725148    -0.9532527958
H      -1.6792993460    -2.0285235937    -0.0581919794
H       0.6276161574    -0.0113929900    -0.0119147358
F       0.9997133942     2.6504884062     0.1361856629
H       1.4918296858     1.8941735487     0.0869457304
F       1.8417582660     0.3773208884    -0.0026335140
H       3.3400286720     0.0176269654    -0.0060983017
F       4.2583097818    -0.2493917586    -0.0059393805
19
-29.546181
C      -1.0766817937     0.3650066520    -1.1932123829
N      -0.5016267113    -0.2771990425    -0.0149214047
C      -1.0656538510     0.2983192559     1.2028249321
C      -0.6269437737    -1.7306178712    -0.0551387151
H      -0.8914471591     1.4367754862    -1.1395538731
H      -0.6131624898    -0.0311111482    -2.0929454025
H      -2.1530770573     0.1975554061    -1.2481696334
H      -0.8762523335     1.3706861637     1.2098086648
H      -0.5965738879    -0.1508215002     2.0742572218
H      -2.1422222246     0.1318553330     1.2564120936
H      -0.1387446884    -2.1625033588     0.8148938159
H      -0.1481012603    -2.1129926112    -0.9532657759
H      -1.6756993707    -2.0284606884    -0.0579021537
H       0.6287116335    -0.0118832643    -0.0119842355
F       0.9657386917     2.6519955123     0.1359510921
H       1.4741864838     1.9070735482     0.0876601673
F       1.8394034720     0.3896977764    -0.0024345873
H       3.3418565902     0.0174003943    -0.0059826428
F       4.2562897302    -0.2607760432    -0.0062971808
19
-29.546275
C      -1.0702610759     0.3640019133    -1.1951454651
N      -0.4972725663    -0.2780054568    -0.0150088597
C      -1.0591888065     0.2971581447     1.2045177249
C      -0.6285154229    -1.7299914033    -0.0550383991
H      -0.8778296341     1.4339140588    -1.1418094886
H      -0.6108546522    -0.0390692949    -2.0945427454
H      -2.1481486742     0.2048880897    -1.2469611985
H      -0.8629713506     1.3676150106     1.2117359547
H      -0.5943097041    -0.1585549358     2.0754160955
H      -2.1371773534     0.1392744043     1.2556267771
H      -0.1449382425    -2.1686524472     0.8144031840
H      -0.1548893098    -2.1191007786    -0.9531250903
H      -1.6767894804    -2.0276900518    -0.0575829474
H       0.6277476448    -0.0118413538    -0.0120130754
F       0.9376194336     2.6556143387     0.1357916519
H       1.4580616990     1.9205365025     0.0883888499
F       1.8391192939     0.4047046975    -0.0021356740
H       3.3452754005     0.0178437477    -0.0058636317
F       4.2553228012    -0.2726451856    -0.0066536628
19
-29.546356
C      -1.0665198307     0.3638659380    -1.1973499020
N      -0.4945210216    -0.2778422002    -0.0150283841
C      -1.0554576933     0.2968099962     1.2066192533
C      -0.6297512470    -1.7294934198    -0.0549687726
H      -0.8675178528     1.4318206960    -1.1444051206
H      -0.6082727153    -0.0440466231    -2.0959365494
H      -2.1454164544     0.2096504379    -1.2460366150
H      -0.8530249808     1.3652746398     1.2141717395
H      -0.5918126251    -0.1634212031     2.0765949834
H      -2.1344161678     0.1440120540     1.2549825993
H      -0.1470709259    -2.1724724962     0.8139804072
H      -0.1574285804    -2.1228912392    -0.9528912869
H      -1.6784835664    -2.0273178361    -0.0573371627
H       0.6264517787    -0.0114827986    -0.0120428240
F       0.9118788465     2.6551376744     0.1353287567
H       1.4480737659     1.9321643121     0.0890222297
F       1.8403641423     0.4146572741    -0.0020151088
H       3.3487937155     0.0172590310    -0.0057619952
F       4.2541314124    -0.2816842373    -0.0069262476
19
-29.546442
C      -1.0621691644     0.3634664142    -1.2002241050
N      -0.4924904554    -0.2781109886    -0.0150165763
C      -1.0511807924     0.2961734800     1.2094546639
C      -0.6322652202    -1.7302359308    -0.0549205503
H      -0.8541978941     1.4298934308    -1.1510687398
H      -0.6044020276    -0.0502612550    -2.0974156446
H      -2.1425721150     0.2141746529    -1.2451044557
H      -0.8401300095     1.3629002330     1.2206610164
H      -0.5880361678    -0.1694962387     2.0778303521
H      -2.1316114589     0.1484254064     1.2543171356
H      -0.1484679498    -2.1757235770     0.8134701101
H      -0.1592583990    -2.1261052144    -0.9526322559
H      -1.6828969686    -2.0257218346    -0.0569787743
H       0.6248301852    -0.0096781516    -0.0120217590
F       0.8803971513     2.6530967578     0.1345628953
H       1.4359914897     1.9449760132     0.0896995259
F       1.8431524033     0.4283658460    -0.0017356621
H       3.3520190491     0.0179640948    -0.0055673396
F       4.2532883441    -0.2941031384    -0.0073098367
19
-29.546508
C      -1.0633681948     0.3640334745    -1.2016955922
N      -0.4943631402    -0.2772377515    -0.0148887959
C      -1.0525803435     0.2965199792     1.2111306780
C      -0.6329302522    -1.7306879043    -0.0548942320
H      -0.8531357876     1.4300080805    -1.1556293188
H      -0.6023895335    -0.0489943211    -2.0976916069
H      -2.1434162075     0.2127326154    -1.2461165705
H      -0.8394986497     1.3626666314     1.2254416387
H      -0.5861937645    -0.1683497448     2.0783638978
H      -2.1326632709     0.1465664000     1.2552112573
H      -0.1448525490    -2.1739338722     0.8130192972
H      -0.1555815805    -2.1243661284    -0.9520044886
H      -1.6849214720    -2.0251226812    -0.0568839767
H       0.6235578526    -0.0082495020    -0.0120599028
F       0.8638824297     2.6454751224     0.1334822178
H       1.4418989377     1.9541600915     0.0901686981
F       1.8463964573     0.4270968333    -0.0020373329
H       3.3553522869     0.0152824748    -0.0055525573
F       4.2548067818    -0.2975997975    -0.0073633102
19
-29.546542
C      -1.0629295645     0.3636503507    -1.2017917539
N      -0.4954128604    -0.2780475460    -0.0148237189
C      -1.0523016182     0.2961152359     1.2113661101
C      -0.6343553842    -1.7323005137    -0.0549062239
H      -0.8517932602     1.4306440618    -1.1610319128
H      -0.6013727519    -0.0489161969    -2.0976569646
H      -2.1431585726     0.2114421027    -1.2464292293
H      -0.8383393021     1.3630185309     1.2309329507
H      -0.5852378755    -0.1682960383     2.0784306980
H      -2.1325676597     0.1449885077     1.2554010825
H      -0.1441728445    -2.1725457832     0.8127176614
H      -0.1548555698    -2.1230420027    -0.9516791468
H      -1.6875561566    -2.0239830443    -0.0567678959
H       0.6229616628    -0.0079103112    -0.0120604300
F       0.8578685216     2.6436463292     0.1329893312
H       1.4418074788     1.9581173417     0.0902487359
F       1.8498799706     0.4290755263    -0.0019747558
H       3.3550989971     0.0153726410    -0.0055578066
F       4.2564367892    -0.3010291917    -0.0074067314
19
-29.546558
C      -1.0645164217     0.3640684507    -1.2004560582
N      -0.4961364561    -0.2777316663    -0.0147443063
C      -1.0540374148     0.2965497586     1.2101984610
C      -0.6324110969    -1.7319938576    -0.0548989436
H      -0.8563796150     1.4317073568    -1.1604702276
H      -0.6024234401    -0.0453435033    -2.0967353956
H      -2.1440596657     0.2096828192    -1.2472255614
H      -0.8430711306     1.3640875133     1.2306053149
H      -0.5863773354    -0.1648543963     2.0777880121
H      -2.1336218384     0.1429390449     1.2560713800
H      -0.1408147870    -2.1696563100     0.8125071554
H      -0.1512832236    -2.1202404219    -0.9512280921
H      -1.6849044008    -2.0245719253    -0.0568418899
H       0.6238340835    -0.0084466977    -0.0120805753
F       0.8577551054     2.6390916043     0.1325315743
H       1.4467159683     1.9570116090     0.0900719247
F       1.8512633943     0.4228501587    -0.0021556006
H       3.3537687664     0.0136033157    -0.0056477029
F       4.2566995081    -0.2987528529    -0.0072894688
19
-29.546568
C      -1.0651893801     0.3638763852    -1.1996226371
N      -0.4960162785    -0.2773999651    -0.0146927877
C      -1.0548243840     0.2963646462     1.2094363805
C      -0.6321414551    -1.7313786841    -0.0548733035
H      -0.8598406937     1.4321240067    -1.1610071810
H      -0.6031615966    -0.0439628160    -2.0961590668
H      -2.1441762185     0.2079340094    -1.2480625814
H      -0.8466522369     1.3644566925     1.2312559858
H      -0.5871913496    -0.1635254832     2.0773388356
H      -2.1338400389     0.1409394788     1.2567830144
H      -0.1409945320    -2.1681956338     0.8124390996
H      -0.1513340406    -2.1188255491    -0.9510151280
H      -1.6841464853    -2.0246056363    -0.0568705806
H       0.6255207259    -0.0087108307    -0.0120682202
F       0.8617139784     2.6391201951     0.1323613116
H       1.4494639796     1.9566186285     0.0898774068
F       1.8517862733     0.4203698017    -0.0021770567
H       3.3533829157     0.0122008211    -0.0057761278
F       4.2576408171    -0.2974000668    -0.0071673634
19
-29.546581
C      -1.0637156373     0.3639274033    -1.1988980977
N      -0.4936791428    -0.2766622139    -0.0146029322
C      -1.0535643023     0.2963544344     1.2088265938
C      -0.6303876505    -1.7301359000    -0.0548087056
H      -0.8596977682     1.4323871090    -1.1626545307
H      -0.6034478056    -0.0443605809    -2.0956200402
H      -2.1425467877     0.2083221773    -1.2483141327
H      -0.8468717213     1.3645643984     1.2330404631
H      -0.5876373371    -0.1639571172     2.0768899010
H      -2.1323893993     0.1409167464     1.2570487210
H      -0.1402142874    -2.1668151653     0.8125550261
H      -0.1505494262    -2.1174793889    -0.9509830583
H      -1.6817446415    -2.0243877296    -0.0567891235
H       0.6278479816    -0.0088745103    -0.0119855529
F       0.8528630774     2.6368127196     0.1317153072
H       1.4442050831     1.9567983610     0.0895407519
F       1.8535506872     0.4218336871    -0.0019362265
H       3.3517947734     0.0109290782    -0.0058636475
F       4.2561843043    -0.3001735086    -0.0071607163
19
-29.546598
C      -1.0629393106     0.3638411972    -1.1992483494
N      -0.4914772739    -0.2743692390    -0.0144426169
C      -1.0530912002     0.2960617556     1.2093162811
C      -0.6298642028    -1.7275201930    -0.0546883896
H      -0.8619238105     1.4326124649    -1.1667495401
H      -0.6030859587    -0.0455270019    -2.0953238051
H      -2.1411945757     0.2061209168    -1.2494493436
H      -0.8496641558     1.3644347385     1.2373506134
H      -0.5875503451    -0.1651764285     2.0767188892
H      -2.1312977228     0.1380533586     1.2580512038
H      -0.1410105906    -2.1647069031     0.8129644361
H      -0.1512838033    -2.1153559013    -0.9511250920
H      -1.6808822924    -2.0231426985    -0.0566936338
H       0.6313536198    -0.0079507150    -0.0118074521
F       0.8488545996     2.6357594950     0.1308317148
H       1.4415918725     1.9577520027     0.0890392881
F       1.8556141813     0.4237466543    -0.0016270358
H       3.3519415694     0.0082027510    -0.0060574804
F       4.2559093997    -0.3028362543    -0.0070596876
19
-29.546616
C      -1.0606500021     0.3642240944    -1.2004501882
N      -0.4880532147    -0.2714347171    -0.0142444274
C      -1.0511846234     0.2961121364     1.2107008968
C      -0.6279057678    -1.7245618857    -0.0545330808
H      -0.8606149147     1.4329932276    -1.1717416414
H      -0.6015789551    -0.0486673957    -2.0955019779
H      -2.1388431930     0.2054716903    -1.2496487258
H      -0.8491766118     1.3643404537     1.2426076179
H      -0.5864060155    -0.1683699270     2.0769765794
H      -2.1292698604     0.1366378370     1.2582437321
H      -0.1400557061    -2.1626055301     0.8136916214
H      -0.1503878241    -2.1131955759    -0.9515803755
H      -1.6789829062    -2.0210410555    -0.0564947353
H       0.6348101925    -0.0063616859    -0.0115115496
F       0.8335174826     2.6320901912     0.1294435656
H       1.4315106497     1.9584390737     0.0883571615
F       1.8590872731     0.4293940350    -0.0010585917
H       3.3510014437     0.0059228554    -0.0061699852
F       4.2531825534    -0.3093878218    -0.0070858961
19
-29.546630
C      -1.0600468780     0.3646370258    -1.2021125717
N      -0.4866382569    -0.2685628585    -0.0140684284
C      -1.0508857272     0.2961808885     1.2125148578
C      -0.6264710659    -1.7220515297    -0.0543984092
H      -0.8615796857     1.4336889361    -1.1752078136
H      -0.5998707492    -0.0508366048    -2.0959395697
H      -2.1381216262     0.2033373923    -1.2498868879
H      -0.8508490205     1.3646473696     1.2463516354
H      -0.5850187938    -0.1706193991     2.0775112507
H      -2.1288118991     0.1338875182     1.2583989004
H      -0.1388569588    -2.1604957014     0.8143817120
H      -0.1491787677    -2.1110082698    -0.9519910307
H      -1.6778953508    -2.0185417166    -0.0563751244
H       0.6370013196    -0.0042813769    -0.0112069694
F       0.8264019818     2.6294320064     0.1282954977
H       1.4266368521     1.9579810406     0.0877252885
F       1.8615129669     0.4321743382    -0.0006722161
H       3.3508267408     0.0037833828    -0.0062578354
F       4.2518449186    -0.3133524417    -0.0070622859
19
-29.546639
C      -1.0602038107     0.3650523208    -1.2032166370
N      -0.4862645623    -0.2666060758    -0.0139334024
C      -1.0512907818     0.2963185680     1.2137544796
C      -0.6246784255    -1.7204826764    -0.0542946248
H      -0.8633744535     1.4346079657    -1.1762634207
H      -0.5984663701    -0.0515631287    -2.0963399514
H      -2.1381942672     0.2012930147    -1.2497298005
H      -0.8532417891     1.3653338375     1.2476798451
H      -0.5838761728    -0.1714518473     2.0780421549
H      -2.1290978791     0.1313851476     1.2581544962
H      -0.1368655981    -2.1587230876     0.8148351901
H      -0.1471446094    -2.1091905925    -0.9521922327
H      -1.6763868779    -2.0163614883    -0.0563157700
H       0.6380571667    -0.0025721243    -0.0109386227
F       0.8222906839     2.6272802639     0.1273705681
H       1.4241472072     1.9570754022     0.0871853783
F       1.8629925175     0.4324172509    -0.0004602312
H       3.3504014642     0.0018717465    -0.0063100920
F       4.2511965579    -0.3156844970    -0.0070273268
19
-29.546652
C      -1.0615518770     0.3653242055    -1.2037308875
N      -0.4867505521    -0.2649015849    -0.0137708077
C      -1.0529711684     0.2962836981     1.2144522629
C      -0.6223881892    -1.7190703177    -0.0541733811
H      -0.8684862284     1.4359589275    -1.1751471290
H      -0.5971331991    -0.0502327843    -2.0965567969
H      -2.1392150949     0.1974530481    -1.2494540277
H      -0.8591328759     1.3665286865     1.2469584355
H      -0.5828788632    -0.1703083760     2.0785402412
H      -2.1304089154     0.1269710893     1.2576662611
H      -0.1342206786    -2.1565730144     0.8151050582
H      -0.1443518003    -2.1070342461    -0.9520942048
H      -1.6742603061    -2.0137061370    -0.0563155713
H       0.6387821961    -0.0005963818    -0.0105906743
F       0.8236805038     2.6266167968     0.1263362018
H       1.4252849166     1.9561727708     0.0864850027
F       1.8635359889     0.4291360133    -0.0003991321
H       3.3502450106    -0.0015655011    -0.0064146757
F       4.2522211327    -0.3164568925    -0.0068961753
19
-29.546666
C      -1.0628319095     0.3654551065    -1.2035404774
N      -0.4866476977    -0.2632480875    -0.0135437781
C      -1.0547703916     0.2960471310     1.2145377725
C      -0.6192327726    -1.7174577166    -0.0540078804
H      -0.8748062968     1.4373560737    -1.1730734909
H      -0.5955358961    -0.0477565834    -2.0964229379
H      -2.1399547272     0.1927169736    -1.2489035045
H      -0.8666077161     1.3677561501     1.2454095665
H      -0.5817655560    -0.1680826286     2.0788466801
H      -2.1315970557     0.1213766204     1.2568310964
H      -0.1308100149    -2.1541671155     0.8152090168
H      -0.1407455348    -2.1046606995    -0.9517139810
H      -1.6712569687    -2.0104312460    -0.0562957944
H       0.6397986108     0.0020162911    -0.0101038862
F       0.8233767890     2.6267079016     0.1248495381
H       1.4254808585     1.9565058439     0.0855325793
F       1.8637708141     0.4252749161    -0.0003194070
H       3.3502522765    -0.0068894988    -0.0065595131
F       4.2538831889    -0.3185194322    -0.0067315988
19
-29.546681
C      -1.0636098689     0.3653073583    -1.2027591994
N      -0.4857304208    -0.2618134303    -0.0132723869
C      -1.0561953025     0.2955274780     1.2140846726
C      -0.6162349861    -1.7158046218    -0.0538267395
H      -0.8809222211     1.4382549562    -1.1710248440
H      -0.5938253142    -0.0448278707    -2.0957885166
H      -2.1400139736     0.1877216102    -1.2483183051
H      -0.8741001873     1.3684708589     1.2439106600
H      -0.5806306414    -0.1654001507     2.0787446661
H      -2.1322144445     0.1153281511     1.2559314427
H      -0.1277127483    -2.1521025231     0.8151558439
H      -0.1374403586    -2.1026458228    -0.9511562750
H      -1.6685047099    -2.0070077947    -0.0562419212
H       0.6408569953     0.0051985612    -0.0095296251
F       0.8216769179     2.6282219934     0.1231041963
H       1.4240287270     1.9583650826     0.0844480350
F       1.8637274801     0.4227503530    -0.0001753068
H       3.3509727077    -0.0133103835    -0.0067079973
F       4.2558723493    -0.3222338053    -0.0065783998
19
-29.546699
C      -1.0634388819     0.3649435693    -1.2014063491
N      -0.4834624219    -0.2603403859    -0.0129058800
C      -1.0569162908     0.2947278670     1.2131756817
C      -0.6128995415    -1.7138636796    -0.0536051566
H      -0.8860669850     1.4385266853    -1.1693411286
H      -0.5915157188    -0.0417048844    -2.0944845413
H      -2.1388622684     0.1824833660    -1.2476244407
H      -0.8810770547     1.3684838112     1.2428603215
H      -0.5790949597    -0.1625202121     2.0781288258
H      -2.1318260343     0.1086594240     1.2549087734
H      -0.1242994916    -2.1502660830     0.8149689385
H      -0.1338089587    -2.1008587893    -0.9504107990
H      -1.6656574689    -2.0030624508    -0.0561123508
H       0.6420412763     0.0097934158    -0.0087626596
F       0.8146314946     2.6306272179     0.1207046715
H       1.4183272478     1.9621803807     0.0830556627
F       1.8637807122     0.4233172221     0.0001576515
H       3.3525384541    -0.0213331914    -0.0068186250
F       4.2576068911    -0.3297932827    -0.0064885960
19
-29.546711
C      -1.0625717880     0.3646487055    -1.2003834030
N      -0.4812607939    -0.2594161329    -0.0126200875
C      -1.0567311309     0.2941440236     1.2124952896
C      -0.6110003657    -1.7126139393    -0.0534641002
H      -0.8877286707     1.4381260568    -1.1690254789
H      -0.5897254683    -0.0400068347    -2.0932064812
H      -2.1372267449     0.1794748504    -1.2473582554
H      -0.8840811029     1.3678739991     1.2429504240
H      -0.5779015687    -0.1609229317     2.0773622220
H      -2.1307706553     0.1045635397     1.2544733849
H      -0.1222491679    -2.1495192175     0.8148474050
H      -0.1316213220    -2.1001014731    -0.9499695333
H      -1.6642196988    -2.0008598928    -0.0559892388
H       0.6424839533     0.0136059656    -0.0081823437
F       0.8067504478     2.6325531409     0.1188346321
H       1.4114974681     1.9653944248     0.0820152566
F       1.8641398703     0.4271324437     0.0005467857
H       3.3542530250    -0.0265526464    -0.0067932618
F       4.2579637137    -0.3375240817    -0.0065332163
19
-29.546720
C      -1.0617409801     0.3646248503    -1.1998585813
N      -0.4797650529    -0.2587695621    -0.0124137529
C      -1.0563649930     0.2939345238     1.2122251037
C      -0.6098274702    -1.7118939632    -0.0533894702
H      -0.8875686324     1.4377307403    -1.1692982363
H      -0.5884394087    -0.0391743384    -2.0922830300
H      -2.1358557357     0.1780049724    -1.2475430051
H      -0.8847935426     1.3673295786     1.2434818861
H      -0.5770520647    -0.1601008593     2.0768111282
H      -2.1297937174     0.1023470710     1.2546138208
H      -0.1207933363    -2.1492108248     0.8148539342
H      -0.1300640619    -2.0997181315    -0.9498247100
H      -1.6632807380    -2.0003659187    -0.0559182690
H       0.6423920338     0.0164805719    -0.0077845400
F       0.7997974776     2.6331173469     0.1174495402
H       1.4055843921     1.9670309092     0.0812702514
F       1.8647504382     0.4320596114     0.0009287256
H       3.3555851373    -0.0291429465    -0.0066510812
F       4.2572302550    -0.3442836312    -0.0066697143
19
-29.546733
C      -1.0612244226     0.3649508023    -1.1994665383
N      -0.4785635401    -0.2577808158    -0.0121495901
C      -1.0564040445     0.2940190949     1.2121771219
C      -0.6079567428    -1.7111046546    -0.0533136971
H      -0.8880011163     1.4377886304    -1.1692332488
H      -0.5869341364    -0.0376809762    -2.0914107677
H      -2.1346789643     0.1760425369    -1.2481816476
H      -0.8862456819     1.3672233444     1.2437899780
H      -0.5761206876    -0.1586097841     2.0764711003
H      -2.1290895674     0.0994745429     1.2552267410
H      -0.1184186342    -2.1484971917     0.8150251839
H      -0.1275045332    -2.0988379736    -0.9498160192
H      -1.6613428530    -2.0010343173    -0.0559063671
H       0.6419030370     0.0198175649    -0.0073059472
F       0.7926549794     2.6327040960     0.1156536028
H       1.3994413866     1.9675308514     0.0802642658
F       1.8658654059     0.4381718586     0.0014438953
H       3.3569073406    -0.0314858959    -0.0063719592
F       4.2557127749    -0.3526917134    -0.0068961068
19
-29.546756
C      -1.0614195653     0.3660201593    -1.1988857876
N      -0.4772799734    -0.2555306278    -0.0116193743
C      -1.0576781578     0.2945716004     1.2123152985
C      -0.6032004200    -1.7095168363    -0.0531591917
H      -0.8916800036     1.4390222014    -1.1676105161
H      -0.5841848404    -0.0333302553    -2.0902638645
H      -2.1335659898     0.1712991835    -1.2497746830
H      -0.8919173516     1.3681693530     1.2430336416
H      -0.5745445246    -0.1543244253     2.0764952166
H      -2.1288865687     0.0929469225     1.2567358585
H      -0.1126152720    -2.1461990293     0.8154920600
H      -0.1212376838    -2.0961640230    -0.9498442843
H      -1.6558157573    -2.0035933159    -0.0560126327
H       0.6409669716     0.0256216256    -0.0063880368
F       0.7822775917     2.6305644657     0.1120346045
H       1.3910533302     1.9668608937     0.0781702219
F       1.8681988252     0.4472647204     0.0023886986
H       3.3586886721    -0.0358992346    -0.0057879974
F       4.2528407176    -0.3677833781    -0.0073192318
19
-29.546793
C      -1.0634972593     0.3683007744    -1.1978608945
N      -0.4762598755    -0.2511280214    -0.0106426697
C      -1.0617028318     0.2958550440     1.2126415536
C      -0.5932089359    -1.7065114202    -0.0528517129
H      -0.9032862947     1.4426700877    -1.1623019032
H      -0.5795678693    -0.0231197290    -2.0889452763
H      -2.1331991599     0.1611330921    -1.2528685564
H      -0.9071694650     1.3713363708     1.2394758573
H      -0.5720976507    -0.1443565178     2.0774631371
H      -2.1301358882     0.0795554518     1.2595685081
H      -0.1007733990    -2.1407881315     0.8164151630
H      -0.1084330823    -2.0900625268    -0.9498039344
H      -1.6436225818    -2.0092761789    -0.0563802189
H       0.6396236696     0.0347557784    -0.0047583616
F       0.7697020549     2.6259045759     0.1054389921
H       1.3818399024     1.9644965976     0.0742530547
F       1.8723165398     0.4580218741     0.0039174432
H       3.3608947019    -0.0445671938    -0.0047877716
F       4.2485774245    -0.3922199272    -0.0079724096
19
-29.546833
C      -1.0677543594     0.3713352118    -1.1964872839
N      -0.4761889785    -0.2455564028    -0.0094128695
C      -1.0683676899     0.2975975511     1.2129944543
C      -0.5794219802    -1.7026819893    -0.0524295471
H      -0.9230792561     1.4483970634    -1.1529926821
H      -0.5742706376    -0.0077815007    -2.0880975128
H      -2.1342270112     0.1471963627    -1.2568394416
H      -0.9315398751     1.3764817660     1.2325017850
H      -0.5695351757    -0.1294572351     2.0796296839
H      -2.1330892622     0.0616649102     1.2630920332
H      -0.0847250514    -2.1328617098     0.8175240489
H      -0.0910882261    -2.0812877860    -0.9495204091
H      -1.6261745196    -2.0174181983    -0.0570363249
H       0.6386211743     0.0443406505    -0.0027782125
F       0.7600896204     2.6196689451     0.0972419491
H       1.3767980393     1.9613928703     0.0693052143
F       1.8770439565     0.4648065169     0.0055938799
H       3.3625659047    -0.0563253454    -0.0036416987
F       4.2443433278    -0.4195116805    -0.0086470662
19
-29.546858
C      -1.0711403874     0.3730312816    -1.1956745632
N      -0.4771513482    -0.2429451906    -0.0087592879
C      -1.0729624513     0.2985946269     1.2131258600
C      -0.5711659018    -1.7008856511    -0.0521784265
H      -0.9376949422     1.4520474924    -1.1456232457
H      -0.5719696830     0.0026168522    -2.0883858935
H      -2.1356805613     0.1395740003    -1.2590885262
H      -0.9485328386     1.3798135191     1.2264304014
H      -0.5686980341    -0.1193739159     2.0816583655
H      -2.1354002437     0.0521254077     1.2650389799
H      -0.0752720313    -2.1279324323     0.8179919025
H      -0.0808990018    -2.0758910278    -0.9491162887
H      -1.6149723078    -2.0232956218    -0.0576013073
H       0.6386418531     0.0474348575    -0.0017907903
F       0.7600047672     2.6163891504     0.0929998843
H       1.3791830913     1.9599577736     0.0666525182
F       1.8789567538     0.4632902962     0.0063294945
H       3.3622751187    -0.0627067308    -0.0030816626
F       4.2424781487    -0.4318446877    -0.0089274144
19
-29.546874
C      -1.0725118246     0.3733190035    -1.1954698552
N      -0.4779426908    -0.2425628404    -0.0085697386
C      -1.0745665492     0.2986477215     1.2132094902
C      -0.5681043308    -1.7005103903    -0.0520623482
H      -0.9449106231     1.4531708772    -1.1421345187
H      -0.5714634109     0.0069666801    -2.0891919098
H      -2.1364786473     0.1378079171    -1.2598775934
H      -0.9563892341     1.3807762133     1.2233034588
H      -0.5686156862    -0.1151778602     2.0830742864
H      -2.1362886648     0.0500294824     1.2657031520
H      -0.0716953624    -2.1258045986     0.8179172463
H      -0.0771235519    -2.0735998768    -0.9486635019
H      -1.6103272133    -2.0259287370    -0.0579653461
H       0.6394646804     0.0466850341    -0.0015245229
F       0.7626542176     2.6156069272     0.0918390478
H       1.3830698598     1.9604126354     0.0658513365
F       1.8787403348     0.4591175817     0.0064916545
H       3.3607971779    -0.0643054278    -0.0029679242
F       4.2416915188    -0.4346503425    -0.0089624135
19
-29.546885
C      -1.0727113027     0.3729431777    -1.1954861968
N      -0.4779149932    -0.2423433521    -0.0084568993
C      -1.0748426822     0.2981053865     1.2133761883
C      -0.5666638686    -1.7001188369    -0.0519637362
H      -0.9490413333     1.4531970319    -1.1412417719
H      -0.5706348118     0.0087319555    -2.0897663614
H      -2.1365440161     0.1371066469    -1.2603515480
H      -0.9609039273     1.3806324312     1.2225404209
H      -0.5680032724    -0.1135221022     2.0840063628
H      -2.1364064080     0.0492200434     1.2660828273
H      -0.0695871652    -2.1243489057     0.8177804957
H      -0.0749630853    -2.0720422178    -0.9482654768
H      -1.6084410544    -2.0263764534    -0.0582019209
H       0.6404298668     0.0464083171    -0.0012924493
F       0.7633964301     2.6161295810     0.0911402425
H       1.3844818265     1.9620144553     0.0653461677
F       1.8781378493     0.4568517095     0.0066853450
H       3.3596985723    -0.0652439103    -0.0029631261
F       4.2405133755    -0.4373449575    -0.0089685636
19
-29.546898
C      -1.0720681911     0.3723022513    -1.1955849316
N      -0.4769024152    -0.2418066100    -0.0082017907
C      -1.0745233446     0.2971609243     1.2138134372
C      -0.5641906275    -1.6994097946    -0.0518127163
H      -0.9530928341     1.4528134424    -1.1410278424
H      -0.5683495025     0.0105276893    -2.0901413166
H      -2.1356233501     0.1360072515    -1.2612491834
H      -0.9658396883     1.3799384451     1.2225841285
H      -0.5662066996    -0.1118608438     2.0850561140
H      -2.1357628639     0.0476689000     1.2668786548
H      -0.0658056453    -2.1223754647     0.8177008203
H      -0.0710748519    -2.0698381652    -0.9478095826
H      -1.6058446906    -2.0266093855    -0.0585026168
H       0.6417015021     0.0477759475    -0.0007193116
F       0.7588425043     2.6174445426     0.0894166148
H       1.3816495047     1.9653330932     0.0642405288
F       1.8775197868     0.4581716346     0.0073099415
H       3.3586820929    -0.0670205865    -0.0028296831
F       4.2368893141    -0.4462232716    -0.0091212648
19
-29.546915
C      -1.0710534964     0.3715907422    -1.1957462370
N      -0.4753102605    -0.2407551244    -0.0077468954
C      -1.0741516409     0.2960010828     1.2145859725
C      -0.5604217365    -1.6983793326    -0.0516289145
H      -0.9579667150     1.4523074913    -1.1410637987
H      -0.5645007623     0.0130329175    -2.0901095741
H      -2.1339717154     0.1334765259    -1.2629793085
H      -0.9721419106     1.3790151462     1.2230924525
H      -0.5632231906    -0.1094967815     2.0861224395
H      -2.1346813283     0.0442348852     1.2684771370
H      -0.0600623930    -2.1197766673     0.8177769682
H      -0.0650512384    -2.0668212957    -0.9474006000
H      -1.6020116945    -2.0272763240    -0.0589248668
H       0.6427933326     0.0510580468     0.0002796492
F       0.7515348760     2.6204217225     0.0864387068
H       1.3752332457     1.9697499581     0.0623097048
F       1.8769601550     0.4635109163     0.0084738441
H       3.3579664056    -0.0697873484    -0.0024934949
F       4.2300600672    -0.4621065609    -0.0094631846
19
-29.546935
C      -1.0694309749     0.3711145938    -1.1959453797
N      -0.4730276214    -0.2391587549    -0.0070854850
C      -1.0735344264     0.2949714355     1.2156837427
C      -0.5547943306    -1.6969839222    -0.0514383245
H      -0.9621068561     1.4518847738    -1.1413768693
H      -0.5591617625     0.0158119447    -2.0894323911
H      -2.1312823023     0.1298519611    -1.2655391723
H      -0.9782049077     1.3780865129     1.2241293940
H      -0.5591460019    -0.1068305571     2.0869122778
H      -2.1328613978     0.0392285080     1.2709380810
H      -0.0521998487    -2.1167305549     0.8179581830
H      -0.0567015364    -2.0631750501    -0.9470460123
H      -1.5961025926    -2.0285767945    -0.0594220399
H       0.6438148632     0.0563448629     0.0016918913
F       0.7379645874     2.6241498765     0.0821100666
H       1.3637489189     1.9752875486     0.0595986706
F       1.8767050133     0.4739584664     0.0102249251
H       3.3570533333    -0.0733244048    -0.0019122355
F       4.2192678431    -0.4859104456    -0.0100493224
19
-29.546962
C      -1.0682248704     0.3707483810    -1.1961404816
N      -0.4709984421    -0.2369377514    -0.0062111670
C      -1.0736076614     0.2940109161     1.2170662712
C      -0.5475450976    -1.6952291199    -0.0512781272
H      -0.9680221263     1.4517840636    -1.1414641561
H      -0.5525134338     0.0196884400    -2.0880356130
H      -2.1283529149     0.1234974829    -1.2694599773
H      -0.9862391657     1.3774647756     1.2252070198
H      -0.5541371766    -0.1030347111     2.0873931307
H      -2.1310429200     0.0312077115     1.2747146806
H      -0.0425274969    -2.1130369707     0.8182788053
H      -0.0461751546    -2.0586481378    -0.9467942609
H      -1.5881134342    -2.0308553431    -0.0601490030
H       0.6445057359     0.0627796238     0.0035554665
F       0.7269664979     2.6316351373     0.0766610409
H       1.3513116066     1.9817381150     0.0560102211
F       1.8759389810     0.4869264966     0.0126050450
H       3.3554702940    -0.0776854645    -0.0011316463
F       4.2033067789    -0.5160536448    -0.0108272488
19
-29.547000
C      -1.0658305533     0.3708139622    -1.1962945832
N      -0.4675341822    -0.2333994357    -0.0048584443
C      -1.0732547138     0.2932150941     1.2190682430
C      -0.5346077675    -1.6923369253    -0.0510729564
H      -0.9742866615     1.4522853718    -1.1412372378
H      -0.5424110964     0.0248792133    -2.0854238764
H      -2.1231652866     0.1141206335    -1.2754953767
H      -0.9956181374     1.3771985203     1.2266453506
H      -0.5466459415    -0.0979024401     2.0875656480
H      -2.1275703907     0.0192670709     1.2806676425
H      -0.0270419706    -2.1075973674     0.8186429503
H      -0.0292548270    -2.0519119415    -0.9463636676
H      -1.5731954578    -2.0348317811    -0.0612124689
H       0.6461506107     0.0725725208     0.0064224068
F       0.7025494672     2.6417020103     0.0679821871
H       1.3293641847     1.9926658188     0.0505642822
F       1.8750880619     0.5084297963     0.0164053600
H       3.3509437957    -0.0843288086     0.0001416155
F       4.1763208659    -0.5648413126    -0.0121470747
19
-29.547055
C      -1.0649339747     0.3704146676    -1.1965703707
N      -0.4660661764    -0.2301354610    -0.0035312134
C      -1.0740037070     0.2923781746     1.2211500653
C      -0.5218735924    -1.6896722604    -0.0511063534
H      -0.9818083549     1.4524740190    -1.1413758803
H      -0.5322129600     0.0295035123    -2.0816262882
H      -2.1187597578     0.1015595301    -1.2837039864
H      -1.0046010678     1.3768996114     1.2283734204
H      -0.5389000488    -0.0931958563     2.0864518400
H      -2.1246004168     0.0052477401     1.2887840071
H      -0.0122276695    -2.1026070914     0.8188743108
H      -0.0123975424    -2.0453795145    -0.9460993675
H      -1.5578105604    -2.0395711337    -0.0627763818
H       0.6483912725     0.0796811505     0.0094709669
F       0.6949037054     2.6625963291     0.0599922498
H       1.3159264120     2.0080343353     0.0451429948
F       1.8703940371     0.5257032832     0.0207612793
H       3.3425293171    -0.0904897098     0.0013012039
F       4.1380510847    -0.6134413259    -0.0135124968
19
-29.547078
C      -1.0627715414     0.3705134524    -1.1963237841
N      -0.4623503972    -0.2258711847    -0.0019343858
C      -1.0741183724     0.2915085336     1.2230649441
C      -0.5034697698    -1.6859639013    -0.0509127197
H      -0.9918429929     1.4543575253    -1.1388166854
H      -0.5200827432     0.0366528019    -2.0783306859
H      -2.1126846471     0.0874866294    -1.2915835617
H      -1.0175507541     1.3779853725     1.2281265645
H      -0.5300614097    -0.0861287689     2.0865499953
H      -2.1204764676    -0.0112576443     1.2966103889
H       0.0075582155    -2.0956003806     0.8192161514
H       0.0096175135    -2.0365861968    -0.9454315667
H      -1.5353534716    -2.0457789862    -0.0644490538
H       0.6516780887     0.0892279614     0.0130714157
F       0.6727200520     2.6805117409     0.0493945204
H       1.2937428503     2.0255150455     0.0384241282
F       1.8677858049     0.5474200359     0.0257272219
H       3.3307426964    -0.1003468364     0.0027756918
F       4.0969173457    -0.6736451995    -0.0151785791
19
-29.547130
C      -1.0618854702     0.3701641336    -1.1962310916
N      -0.4625114821    -0.2274903482    -0.0023303660
C      -1.0723696315     0.2916959836     1.2224345512
C      -0.5030147459    -1.6867925671    -0.0511652852
H      -0.9856996686     1.4541347915    -1.1389472224
H      -0.5214457309     0.0325386341    -2.0777600228
H      -2.1119169434     0.0887548213    -1.2914333770
H      -1.0088391634     1.3781420511     1.2280266100
H      -0.5308490626    -0.0901007201     2.0851198083
H      -2.1190755311    -0.0079803178     1.2967901214
H       0.0054256888    -2.0976290943     0.8187509348
H       0.0078451009    -2.0385290657    -0.9453875876
H      -1.5336838520    -2.0459273332    -0.0647174168
H       0.6542526763     0.0844129231     0.0126924761
F       0.6759806912     2.6879709189     0.0512294447
H       1.2981223520     2.0338074583     0.0398045566
F       1.8645883934     0.5428840502     0.0258927692
H       3.3211923808    -0.0999614110     0.0024499579
F       4.0838839981    -0.6700949084    -0.0152188609
19
-29.547166
C      -1.0615611213     0.3696631836    -1.1963284020
N      -0.4620383790    -0.2271546297    -0.0021974586
C      -1.0720680230     0.2912013575     1.2226689627
C      -0.4995584615    -1.6861215278    -0.0511708009
H      -0.9872836516     1.4540106949    -1.1382469401
H      -0.5190903884     0.0326494734    -2.0772238199
H      -2.1110493266     0.0848276728    -1.2933710129
H      -1.0098246104     1.3779381519     1.2277884338
H      -0.5289709429    -0.0900675971     2.0849605458
H      -2.1183715842    -0.0113588164     1.2988243735
H       0.0087919156    -2.0964972114     0.8186355319
H       0.0119442439    -2.0368727298    -0.9450560804
H      -1.5289577302    -2.0473982368    -0.0653024235
H       0.6557678346     0.0862122314     0.0132753433
F       0.6778562174     2.6956095904     0.0496551855
H       1.2997664446     2.0426933908     0.0390986376
F       1.8623582658     0.5454768410     0.0269531600
H       3.3125379740    -0.1034344379     0.0026873969
F       4.0697513231    -0.6813774007    -0.0156506327
19
-29.547313
C      -1.0563681327     0.3665425757    -1.1968528171
N      -0.4564634600    -0.2273788286    -0.0018934467
C      -1.0665861618     0.2882213533     1.2234702803
C      -0.4851102179    -1.6853226429    -0.0511992849
H      -0.9854326363     1.4516608626    -1.1361655336
H      -0.5094859820     0.0295617177    -2.0757723264
H      -2.1041638977     0.0733762316    -1.2984135439
H      -1.0046094603     1.3753867548     1.2274394018
H      -0.5209405336    -0.0937632872     2.0844536496
H      -2.1120029268    -0.0194408337     1.3045677655
H       0.0230588839    -2.0938343383     0.8188152691
H       0.0290924384    -2.0320296868    -0.9442766105
H      -1.5109704872    -2.0534835327    -0.0676308066
H       0.6615705671     0.0947336689     0.0151988754
F       0.6691835855     2.7268099120     0.0434932176
H       1.3007577249     2.0877782716     0.0375561026
F       1.8552766403     0.5631622352     0.0312775632
H       3.2677485206    -0.1212586058     0.0036903225
F       4.0054455356    -0.7307218274    -0.0177580778
19
-29.547449
C      -1.0528502879     0.3641951490    -1.1965455193
N      -0.4500244056    -0.2260429910    -0.0016793143
C      -1.0629856783     0.2857511515     1.2233566594
C      -0.4728691982    -1.6838295317    -0.0509857003
H      -0.9882268536     1.4505233866    -1.1327265938
H      -0.5031175523     0.0299236322    -2.0759679464
H      -2.0994114197     0.0617278542    -1.2985976442
H      -1.0053601986     1.3741916045     1.2257531052
H      -0.5156994879    -0.0946462409     2.0851719133
H      -2.1080148629    -0.0287605409     1.3050071570
H       0.0359165222    -2.0900505101     0.8199426834
H       0.0442185372    -2.0268533504    -0.9439363936
H      -1.4975369819    -2.0572260250    -0.0691285919
H       0.6641573912     0.1067677715     0.0161385513
F       0.6603925147     2.7434450995     0.0382001660
H       1.3067797949     2.1218836081     0.0372607734
F       1.8545145517     0.5768511686     0.0336911630
H       3.2278033764    -0.1461816162     0.0043267908
F       3.9623142387    -0.7616696195    -0.0192812591
19
-29.547573
C      -1.0463691972     0.3616416540    -1.1965409492
N      -0.4419634480    -0.2253268953    -0.0010302342
C      -1.0568628737     0.2831940984     1.2242165126
C      -0.4571460537    -1.6830641600    -0.0508852253
H      -0.9863072377     1.4479182379    -1.1311656940
H      -0.4941152824     0.0295541562    -2.0751787122
H      -2.0905179820     0.0525161640    -1.2999167334
H      -1.0017156623     1.3714308371     1.2259270861
H      -0.5082476788    -0.0961681556     2.0855534337
H      -2.1000328057    -0.0358921998     1.3066848909
H       0.0524262093    -2.0865743082     0.8209627507
H       0.0632378311    -2.0216869439    -0.9436772197
H      -1.4799288096    -2.0635198842    -0.0709586571
H       0.6667971774     0.1196308603     0.0178414369
F       0.6379971296     2.7644776207     0.0309215085
H       1.2983643536     2.1574134732     0.0355267063
F       1.8522362172     0.6032644820     0.0376588179
H       3.1864788276    -0.1690787381     0.0054545491
F       3.9056692853    -0.8097302985    -0.0213942675
19
-29.547747
C      -1.0398562967     0.3587234001    -1.1966293493
N      -0.4339660793    -0.2247503634    -0.0002563343
C      -1.0506787308     0.2803283325     1.2254362068
C      -0.4412199483    -1.6826687490    -0.0508313926
H      -0.9849061825     1.4446517405    -1.1301184084
H      -0.4850821199     0.0296871590    -2.0742736664
H      -2.0811372244     0.0439588254    -1.3009260112
H      -0.9985614554     1.3682178905     1.2264884371
H      -0.5006244349    -0.0974053431     2.0858957539
H      -2.0915565210    -0.0423916791     1.3078515338
H       0.0694937020    -2.0831426375     0.8220753014
H       0.0828477267    -2.0167463253    -0.9434914782
H      -1.4620759237    -2.0697013895    -0.0728117918
H       0.6692747975     0.1327999174     0.0195046786
F       0.6149782229     2.7863717993     0.0236001613
H       1.2903759452     2.1921816410     0.0337738047
F       1.8504837237     0.6313657569     0.0417004677
H       3.1475083679    -0.1954660317     0.0064600608
F       3.8447024311    -0.8560139439    -0.0234479739
19
-29.547873
C      -1.0332076682     0.3556476401    -1.1965031576
N      -0.4259827296    -0.2244073434     0.0005445674
C      -1.0443018430     0.2774030982     1.2265332357
C      -0.4251102125    -1.6824486428    -0.0507739334
H      -0.9838797526     1.4412064885    -1.1294764655
H      -0.4759692601     0.0300682388    -2.0734709552
H      -2.0719511780     0.0357958967    -1.3017809253
H      -0.9957912140     1.3649284973     1.2273619590
H      -0.4928188324    -0.0985204804     2.0864234940
H      -2.0832803719    -0.0485374563     1.3087029587
H       0.0867465541    -2.0797850833     0.8231209337
H       0.1026380157    -2.0120412513    -0.9432169433
H      -1.4440841342    -2.0756878230    -0.0746571392
H       0.6718808091     0.1460909198     0.0211346430
F       0.5941336436     2.8066476425     0.0163668779
H       1.2803592561     2.2278955927     0.0319750282
F       1.8488207878     0.6604081815     0.0457608683
H       3.1079251263    -0.2214497493     0.0074780630
F       3.7838730039    -0.9032143663    -0.0255231096
19
-29.547973
C      -1.0265329363     0.3524236488    -1.1962442681
N      -0.4178236172    -0.2242337500     0.0013392182
C      -1.0378365601     0.2743572668     1.2275347498
C      -0.4087950268    -1.6823235628    -0.0507149456
H      -0.9831686560     1.4377538977    -1.1291293237
H      -0.4667793711     0.0305831591    -2.0727580067
H      -2.0630616587     0.0278242956    -1.3025370373
H      -0.9933385551     1.3616809762     1.2284987668
H      -0.4848637510    -0.0995923348     2.0871144645
H      -2.0752816826    -0.0545356950     1.3093367741
H       0.1041663188    -2.0765300712     0.8240663806
H       0.1225681084    -2.0075554350    -0.9428153271
H      -1.4258320303    -2.0815015235    -0.0764960224
H       0.6747699977     0.1594687053     0.0227486075
F       0.5722347346     2.8281888232     0.0091912679
H       1.2714304614     2.2618671287     0.0301665669
F       1.8472587535     0.6898456878     0.0498180974
H       3.0684471356    -0.2471890205     0.0084787490
F       3.7224383355    -0.9505321964    -0.0275987118
19
-29.548053
C      -1.0198942800     0.3490263278    -1.1958956358
N      -0.4091523058    -0.2241668209     0.0021289667
C      -1.0313066849     0.2711753037     1.2285082022
C      -0.3920854973    -1.6823287486    -0.0506501367
H      -0.9830203695     1.4342613445    -1.1293536846
H      -0.4574941692     0.0314181961    -2.0721510173
H      -2.0545976856     0.0203396386    -1.3030622373
H      -0.9914532509     1.3584832609     1.2301253740
H      -0.4766972025    -0.1004908818     2.0880300691
H      -2.0676574343    -0.0601111463     1.3094949002
H       0.1219108595    -2.0735116041     0.8248772053
H       0.1427710228    -2.0035404219    -0.9421968013
H      -1.4071719224    -2.0869400510    -0.0783136894
H       0.6781134990     0.1729900781     0.0243215144
F       0.5533207834     2.8480004635     0.0022532506
H       1.2597154540     2.2962556181     0.0282200889
F       1.8460061570     0.7199597735     0.0538601477
H       3.0297891113    -0.2731880949     0.0094302229
F       3.6589039155    -0.9976322353    -0.0296267395
19
-29.548117
C      -1.0133508186     0.3454774248    -1.1955000295
N      -0.4000758501    -0.2241136480     0.0029043392
C      -1.0247581435     0.2678403480     1.2294810834
C      -0.3748497890    -1.6823763904    -0.0505639988
H      -0.9835255268     1.4306811667    -1.1301408872
H      -0.4481992784     0.0325319297    -2.0716254546
H      -2.0465685763     0.0132230300    -1.3033041825
H      -0.9902080447     1.3552209599     1.2322765431
H      -0.4684058083    -0.1012587819     2.0891297480
H      -2.0603680427    -0.0653985635     1.3091288352
H       0.1400838466    -2.0708069880     0.8255629198
H       0.1633322299    -2.0000797496    -0.9413784155
H      -1.3880193162    -2.0920155165    -0.0801047262
H       0.6822666814     0.1867603403     0.0258577259
F       0.5323947307     2.8702446995    -0.0045540909
H       1.2501626942     2.3268288708     0.0262833710
F       1.8450071289     0.7503697279     0.0578458340
H       2.9916086276    -0.2984289487     0.0103426581
F       3.5934732552    -1.0446999111    -0.0316412727
19
-29.548184
C      -1.0078823709     0.3424287397    -1.1951787752
N      -0.3914638952    -0.2237183387     0.0035226292
C      -1.0191389039     0.2649333162     1.2302977996
C      -0.3591831105    -1.6822647605    -0.0504251214
H      -0.9847300395     1.4277135114    -1.1315091727
H      -0.4402243785     0.0337984131    -2.0712748857
H      -2.0402565815     0.0074804002    -1.3031297827
H      -0.9898805795     1.3524734953     1.2347904903
H      -0.4612240998    -0.1017271030     2.0902626834
H      -2.0545329563    -0.0696489211     1.3081016707
H       0.1563556422    -2.0689587961     0.8260098111
H       0.1815707233    -1.9979058020    -0.9403732278
H      -1.3707554284    -2.0957973113    -0.0815880412
H       0.6870494606     0.1989056259     0.0271320723
F       0.5182974653     2.8876866004    -0.0099579750
H       1.2382939390     2.3524315194     0.0243587403
F       1.8444772636     0.7765388430     0.0611752512
H       2.9594224752    -0.3188719744     0.0111037873
F       3.5338053747    -1.0854974574    -0.0333179538
19
-29.548328
C      -1.0041185576     0.3403194758    -1.1950137353
N      -0.3834125271    -0.2223928702     0.0038594185
C      -1.0149614658     0.2627413898     1.2308174389
C      -0.3452916308    -1.6815278105    -0.0501590314
H      -0.9871529294     1.4258511936    -1.1337386029
H      -0.4343998827     0.0351766144    -2.0711629409
H      -2.0364763389     0.0034139329    -1.3021640783
H      -0.9910242858     1.3504891409     1.2379782396
H      -0.4559428092    -0.1018403039     2.0913537980
H      -2.0507359496    -0.0727585615     1.3058958039
H       0.1702838349    -2.0685298589     0.8261024185
H       0.1968172791    -1.9978418710    -0.9390146346
H      -1.3557074697    -2.0974880735    -0.0825732417
H       0.6936407613     0.2088716984     0.0280273073
F       0.5096726494     2.9021621784    -0.0133493361
H       1.2274679263     2.3658068611     0.0225842751
F       1.8446669082     0.7954802721     0.0634255622
H       2.9360455565    -0.3306442868     0.0116363723
F       3.4806289307    -1.1172891212    -0.0345050332
19
-29.548612
C      -0.9991549848     0.3376815050    -1.1947452579
N      -0.3706731335    -0.2193372585     0.0041961263
C      -1.0091336714     0.2597737703     1.2313034572
C      -0.3232443613    -1.6795986068    -0.0496080075
H      -0.9922142842     1.4237195118    -1.1380609953
H      -0.4267668938     0.0374918374    -2.0711331820
H      -2.0315377237    -0.0022913706    -1.2996700094
H      -0.9940749204     1.3478149207     1.2438107204
H      -0.4490629207    -0.1018197697     2.0929421855
H      -2.0454083296    -0.0773361546     1.3010360306
H       0.1921274979    -2.0686320972     0.8260619491
H       0.2204112009    -1.9991671807    -0.9364714257
H      -1.3320384442    -2.0985092911    -0.0837420022
H       0.7060386236     0.2237663591     0.0291820487
F       0.5000499994     2.9239434483    -0.0173187966
H       1.2098700381     2.3775673038     0.0197121501
F       1.8458414119     0.8214982897     0.0662578846
H       2.9034140922    -0.3421405879     0.0123818434
F       3.3955568037    -1.1644246289    -0.0361347192
19
-29.548849
C      -0.9937957634     0.3359444213    -1.1941909083
N      -0.3586826307    -0.2157244935     0.0044966352
C      -1.0032339692     0.2575763954     1.2312552229
C      -0.3012317620    -1.6770128079    -0.0490645720
H      -0.9965463382     1.4221441595    -1.1412591729
H      -0.4205060720     0.0391417204    -2.0709580939
H      -2.0247288866    -0.0093766586    -1.2967560039
H      -0.9961972068     1.3454479703     1.2488179818
H      -0.4437479125    -0.1023326557     2.0937847870
H      -2.0383865789    -0.0833885974     1.2961574346
H       0.2145219913    -2.0672235517     0.8263051750
H       0.2447798185    -1.9988608501    -0.9340902898
H      -1.3083085129    -2.0995325657    -0.0846665341
H       0.7169606494     0.2378546810     0.0302368228
F       0.4883509852     2.9471676226    -0.0212151315
H       1.1949559537     2.3859216283     0.0169848766
F       1.8480355513     0.8462544476     0.0688092509
H       2.8722445726    -0.3550966987     0.0129242443
F       3.3055161113    -1.2089041673    -0.0375717247
19
-29.549053
C      -0.9883082348     0.3345290122    -1.1935265301
N      -0.3465774296    -0.2119057689     0.0047395327
C      -0.9973123650     0.2556651055     1.2309527420
C      -0.2793530099    -1.6740947725    -0.0485191924
H      -1.0004934575     1.4209795620    -1.1439904333
H      -0.4147350910     0.0405440743    -2.0708451273
H      -2.0174465603    -0.0169446454    -1.2936580981
H      -0.9979108035     1.3434760281     1.2534128630
H      -0.4389878181    -0.1030489918     2.0944536631
H      -2.0310460271    -0.0899686013     1.2912247905
H       0.2369565443    -2.0650258292     0.8266006725
H       0.2692556909    -1.9977394764    -0.9316592243
H      -1.2846358571    -2.1004628082    -0.0854641031
H       0.7271360697     0.2513985664     0.0312260223
F       0.4815783128     2.9662737137    -0.0247168842
H       1.1758242762     2.3966669751     0.0140467681
F       1.8505827777     0.8702964712     0.0711929575
H       2.8412384629    -0.3675621164     0.0134586105
F       3.2142345194    -1.2530764983    -0.0389290291
19
-29.549181
C      -0.9825595384     0.3334151576    -1.1926828906
N      -0.3343086486    -0.2079545647     0.0049286767
C      -0.9912651343     0.2539947690     1.2303552374
C      -0.2574820710    -1.6707629781    -0.0479877777
H      -1.0039577682     1.4201582159    -1.1460648121
H      -0.4094495290     0.0416659086    -2.0708463690
H      -2.0095362402    -0.0252585903    -1.2902771295
H      -0.9991005769     1.3418577998     1.2574732446
H      -0.4347342321    -0.1041135345     2.0949898272
H      -2.0232896605    -0.0973617535     1.2862087190
H       0.2596568463    -2.0616137782     0.8269289243
H       0.2940900718    -1.9953310935    -0.9291527078
H      -1.2607859078    -2.1013779020    -0.0861324305
H       0.7363985723     0.2643711449     0.0321530074
F       0.4733875628     2.9861285368    -0.0281784835
H       1.1586805637     2.4052788766     0.0112230754
F       1.8537481659     0.8933180653     0.0733538344
H       2.8108620380    -0.3819023428     0.0138101534
F       3.1196454863    -1.2945119371    -0.0401020988
19
-29.549366
C      -0.9778315355     0.3331442309    -1.1917801791
N      -0.3251886513    -0.2047927007     0.0049940021
C      -0.9866286437     0.2532454590     1.2294438690
C      -0.2417197037    -1.6674711723    -0.0476180504
H      -1.0053456419     1.4200783199    -1.1462108178
H      -0.4063979302     0.0420452329    -2.0711277104
H      -2.0025299837    -0.0326316313    -1.2872061832
H      -0.9988257944     1.3412837605     1.2592275450
H      -0.4324556566    -0.1055134515     2.0951753461
H      -2.0168393876    -0.1041557679     1.2823359135
H       0.2766287547    -2.0564583727     0.8272753331
H       0.3128050211    -1.9907412375    -0.9272198590
H      -1.2431671038    -2.1020036434    -0.0863733585
H       0.7411430957     0.2725132759     0.0326921247
F       0.4680776558     2.9989003237    -0.0304563654
H       1.1469955157     2.4102379932     0.0092456081
F       1.8573347784     0.9079117572     0.0744466950
H       2.7895221737    -0.3974494540     0.0136567000
F       3.0444230372    -1.3181429218    -0.0405006129
19
-29.549537
C      -0.9716325782     0.3328554650    -1.1906108980
N      -0.3146155308    -0.2007833403     0.0050779039
C      -0.9808568700     0.2524080677     1.2281756618
C      -0.2224288929    -1.6624889111    -0.0471192114
H      -1.0059200078     1.4199630090    -1.1451003249
H      -0.4030747225     0.0422527366    -2.0717876311
H      -1.9928209412    -0.0428544267    -1.2827283096
H      -0.9975039718     1.3406720907     1.2600678257
H      -0.4300889242    -0.1077127106     2.0952405804
H      -2.0081731857    -0.1136361211     1.2771825901
H       0.2980243008    -2.0472708870     0.8280065272
H       0.3364915333    -1.9820865125    -0.9249329676
H      -1.2212154628    -2.1028694542    -0.0864579191
H       0.7456999556     0.2813860039     0.0332167081
F       0.4621353075     3.0122883009    -0.0330273462
H       1.1339047664     2.4154521428     0.0069569966
F       1.8622531471     0.9241709557     0.0752498599
H       2.7602057857    -0.4111105041     0.0136995755
F       2.9496162915    -1.3506359047    -0.0411096215
19
-29.549826
C      -0.9660826296     0.3340372683    -1.1892527242
N      -0.3090327079    -0.1969427628     0.0050268307
C      -0.9768828799     0.2531075402     1.2261220462
C      -0.2110353484    -1.6552601581    -0.0467297843
H      -1.0012663798     1.4209726388    -1.1385688864
H      -0.4037294559     0.0409769954    -2.0734600292
H      -1.9818027665    -0.0544552180    -1.2769138732
H      -0.9920979021     1.3416760153     1.2550188952
H      -0.4314454957    -0.1113581634     2.0943369406
H      -1.9994500842    -0.1248750097     1.2724668790
H       0.3135583515    -2.0292066013     0.8296084950
H       0.3540725536    -1.9636255257    -0.9236475346
H      -1.2063892284    -2.1033966589    -0.0854754298
H       0.7413179995     0.2810009771     0.0328754085
F       0.4610663723     3.0113278631    -0.0333991142
H       1.1316061134     2.4121978388     0.0061041562
F       1.8696122206     0.9248427244     0.0732700613
H       2.7372297666    -0.4194817281     0.0132009596
F       2.8707515010    -1.3615380355    -0.0405832963
19
-29.549958
C      -0.9646317384     0.3342701815    -1.1891179722
N      -0.3079106893    -0.1952477130     0.0051058753
C      -0.9760811252     0.2532069384     1.2257222045
C      -0.2075664402    -1.6521783458    -0.0464898578
H      -0.9987740304     1.4209178934    -1.1355982895
H      -0.4037667008     0.0408993852    -2.0742332823
H      -1.9785419848    -0.0582808964    -1.2743187518
H      -0.9899196969     1.3416407280     1.2522413752
H      -0.4316664640    -0.1124455901     2.0939630550
H      -1.9969969697    -0.1284042158     1.2703660287
H       0.3188120643    -2.0203939012     0.8308086743
H       0.3597749738    -1.9545055175    -0.9236825938
H      -1.2016343871    -2.1035302712    -0.0849979623
H       0.7386808134     0.2786045040     0.0325057953
F       0.4622743493     3.0058379778    -0.0329040161
H       1.1340274543     2.4090629923     0.0061438858
F       1.8731485099     0.9223750320     0.0716828526
H       2.7273266722    -0.4166624551     0.0131038452
F       2.8434453896    -1.3651667265    -0.0403008662
19
-29.550148
C      -0.9682479012     0.3353180177    -1.1900038116
N      -0.3182900975    -0.1957697185     0.0050796841
C      -0.9809204007     0.2545616848     1.2259374547
C      -0.2211286305    -1.6491763371    -0.0463042624
H      -0.9912061767     1.4210494569    -1.1288421600
H      -0.4077886527     0.0407928854    -2.0754640760
H      -1.9821832227    -0.0560688266    -1.2723861617
H      -0.9858806922     1.3424148104     1.2435129663
H      -0.4349803591    -0.1124845487     2.0928293876
H      -2.0016010434    -0.1262532851     1.2705553060
H       0.3077611707    -2.0059963497     0.8335532095
H       0.3469135917    -1.9385862827    -0.9267648681
H      -1.2146296110    -2.1027046344    -0.0834834556
H       0.7254955601     0.2598443584     0.0306578045
F       0.4726609935     2.9718313813    -0.0279242520
H       1.1605687853     2.3904686597     0.0093158906
F       1.8783547530     0.8948066096     0.0656602229
H       2.7331381745    -0.3894832588     0.0126816577
F       2.8819637590    -1.3345646226    -0.0386105363
19
-29.550265
C      -0.9686666632     0.3349229076    -1.1901416913
N      -0.3175462552    -0.1954417788     0.0050899940
C      -0.9809585765     0.2541711982     1.2262011203
C      -0.2183924217    -1.6491387257    -0.0460984675
H      -0.9924777179     1.4205572042    -1.1304655364
H      -0.4061836207     0.0420239751    -2.0750402874
H      -1.9839742106    -0.0547111175    -1.2723419555
H      -0.9876045078     1.3418037942     1.2448840105
H      -0.4333830183    -0.1114041408     2.0930197862
H      -2.0029511175    -0.1246636240     1.2698706905
H       0.3103026978    -2.0059710374     0.8340578948
H       0.3490216407    -1.9387518606    -0.9269839067
H      -1.2117499798    -2.1026943586    -0.0836333523
H       0.7269378934     0.2596410152     0.0305158613
F       0.4744142991     2.9674825660    -0.0274583452
H       1.1618772102     2.3894467282     0.0092954495
F       1.8798820961     0.8976414088     0.0651660559
H       2.7266782588    -0.3861931282     0.0126418188
F       2.8747739930    -1.3387210258    -0.0385791397
19
-29.550381
C      -0.9695953759     0.3344712237    -1.1903095047
N      -0.3159767426    -0.1946318515     0.0051121301
C      -0.9812487683     0.2537060166     1.2265268547
C      -0.2134601019    -1.6490482517    -0.0457817969
H      -0.9950637369     1.4202908595    -1.1334736693
H      -0.4039465015     0.0440611972    -2.0740237358
H      -1.9866638635    -0.0520722212    -1.2724864914
H      -0.9908765292     1.3413193391     1.2475771302
H      -0.4312041626    -0.1094440883     2.0930649000
H      -2.0049125164    -0.1218470175     1.2688956047
H       0.3151345109    -2.0062031772     0.8346560546
H       0.3530866514    -1.9394102724    -0.9271834074
H      -1.2063095258    -2.1028332497    -0.0838059499
H       0.7286817290     0.2591292124     0.0301696856
F       0.4751265735     2.9611534259    -0.0265083740
H       1.1677554190     2.3840360438     0.0094485922
F       1.8833420422     0.9028578796     0.0641434180
H       2.7147453994    -0.3831128712     0.0122863909
F       2.8613854992    -1.3424221970    -0.0383078316
19
-29.550541
C      -0.9724954872     0.3347415217    -1.1906510301
N      -0.3159144643    -0.1933629026     0.0050908367
C      -0.9832254862     0.2540924307     1.2270106480
C      -0.2084113310    -1.6487129219    -0.0452660428
H      -0.9990898983     1.4206763982    -1.1384268704
H      -0.4016568851     0.0476373142    -2.0719916923
H      -1.9929346490    -0.0451919065    -1.2733110009
H      -0.9968299435     1.3414706120     1.2515015667
H      -0.4289208418    -0.1053637400     2.0926476112
H      -2.0099382039    -0.1150573094     1.2679935823
H       0.3204755010    -2.0058161307     0.8356427346
H       0.3564327157    -1.9396896278    -0.9279575757
H      -1.2002616463    -2.1030751035    -0.0837044061
H       0.7278427944     0.2539377352     0.0289843752
F       0.4846495519     2.9361463903    -0.0228898740
H       1.1810958976     2.3718663441     0.0103450682
F       1.8913867048     0.9068727065     0.0609045580
H       2.6955582395    -0.3748895172     0.0111813293
F       2.8522374317    -1.3362822931    -0.0371038180
19
-29.550695
C      -0.9719963843     0.3359711217    -1.1903052877
N      -0.3135076073    -0.1907520515     0.0051240258
C      -0.9826869291     0.2552584331     1.2266653394
C      -0.1992651861    -1.6459614041    -0.0448564123
H      -1.0014398488     1.4216230588    -1.1403646374
H      -0.4004996328     0.0494831700    -2.0711300722
H      -1.9926109176    -0.0445472895    -1.2722308488
H      -0.9997524949     1.3421843577     1.2535119384
H      -0.4281821266    -0.1037292541     2.0921319208
H      -2.0094542675    -0.1146213303     1.2658503143
H       0.3314320642    -2.0010406252     0.8360540295
H       0.3668863708    -1.9355424423    -0.9273710294
H      -1.1890875986    -2.1040162792    -0.0833065841
H       0.7260482469     0.2526593048     0.0280820520
F       0.4877184678     2.9222255484    -0.0206887069
H       1.1908686350     2.3602957080     0.0105683603
F       1.8999059546     0.9128512222     0.0583083060
H       2.6721564420    -0.3748912834     0.0100904388
F       2.8134668124    -1.3374499650    -0.0361331462
19
-29.550809
C      -0.9716572856     0.3379119944    -1.1901440154
N      -0.3119977500    -0.1876920983     0.0051975375
C      -0.9827139165     0.2572054717     1.2263175876
C      -0.1920362213    -1.6432552357    -0.0446935679
H      -1.0035705914     1.4241275523    -1.1414452623
H      -0.4013456525     0.0502531662    -2.0707938089
H      -1.9903529080    -0.0442195960    -1.2716287045
H      -1.0019649342     1.3446276592     1.2549063797
H      -0.4295926902    -0.1025404851     2.0916708245
H      -2.0074093088    -0.1151333945     1.2645465768
H       0.3415575734    -1.9970341493     0.8350697587
H       0.3766904472    -1.9322963834    -0.9259161152
H      -1.1791035534    -2.1057757462    -0.0825651133
H       0.7216085263     0.2528577051     0.0270562585
F       0.4922727214     2.9067607512    -0.0178882608
H       1.2005636720     2.3473215725     0.0109440120
F       1.9086682046     0.9175800762     0.0556079688
H       2.6507739910    -0.3764872934     0.0087139646
F       2.7796096758    -1.3342115669    -0.0349560204
19
-29.550835
C      -0.9710243489     0.3392566368    -1.1901676373
N      -0.3121239459    -0.1871797178     0.0051470105
C      -0.9823908863     0.2585764138     1.2262887179
C      -0.1911637359    -1.6426364712    -0.0448070446
H      -1.0039335953     1.4250290306    -1.1412290777
H      -0.4025085198     0.0496985193    -2.0713558411
H      -1.9891492345    -0.0449162053    -1.2718424358
H      -1.0019340298     1.3456230169     1.2548886305
H      -0.4309661007    -0.1026620515     2.0919917211
H      -2.0064224659    -0.1163063924     1.2647911942
H       0.3433402512    -1.9971304835     0.8338933929
H       0.3785487098    -1.9326277997    -0.9249660628
H      -1.1777659440    -2.1068631093    -0.0822701816
H       0.7197365047     0.2552482654     0.0268993496
F       0.4933437726     2.9046038170    -0.0171641135
H       1.2013533674     2.3445938822     0.0110423615
F       1.9100024340     0.9185907904     0.0552583935
H       2.6479691378    -0.3772540121     0.0083196478
F       2.7750886294    -1.3336441295    -0.0347180250
19
-29.550868
C      -0.9710126277     0.3406997380    -1.1906599939
N      -0.3126418684    -0.1857896302     0.0050907364
C      -0.9828642730     0.2601256312     1.2264586652
C      -0.1913417917    -1.6421199968    -0.0450891467
H      -1.0044006680     1.4272615390    -1.1407477004
H      -0.4050022538     0.0487471176    -2.0727251849
H      -1.9873653705    -0.0454843425    -1.2725973857
H      -1.0018278473     1.3480821234     1.2545751770
H      -0.4337743879    -0.1025584423     2.0929626012
H      -2.0049695499    -0.1178163764     1.2657062440
H       0.3452832857    -1.9979601939     0.8315792687
H       0.3803405762    -1.9338422057    -0.9233648054
H      -1.1766972457    -2.1090295874    -0.0816564903
H       0.7155580492     0.2602167140     0.0265826211
F       0.4960800110     2.8992405000    -0.0153605386
H       1.2036584440     2.3386438383     0.0114846450
F       1.9118942907     0.9192556780     0.0544760850
H       2.6448495314    -0.3758665456     0.0075310865
F       2.7742336957    -1.3318055590    -0.0342458841
19
-29.550881
C      -0.9713677525     0.3417401608    -1.1911065006
N      -0.3134893029    -0.1856156954     0.0049740467
C      -0.9833364921     0.2612333932     1.2267253497
C      -0.1920522319    -1.6420752731    -0.0452188602
H      -1.0046303297     1.4279069141    -1.1407849781
H      -0.4064480108     0.0484674562    -2.0736532451
H      -1.9877414736    -0.0453280995    -1.2733434269
H      -1.0019638075     1.3488606844     1.2543852379
H      -0.4352916381    -0.1020846777     2.0937937489
H      -2.0053169755    -0.1180872185     1.2665269836
H       0.3451201564    -1.9991291494     0.8303705509
H       0.3797633495    -1.9351673851    -0.9227841657
H      -1.1774568916    -2.1101622710    -0.0813271832
H       0.7131703512     0.2634892331     0.0264360373
F       0.4980076843     2.8957202595    -0.0139979137
H       1.2052732397     2.3348742227     0.0119338575
F       1.9123066378     0.9189825512     0.0540166276
H       2.6451522096    -0.3732964986     0.0070491733
F       2.7803012775    -1.3303286070    -0.0339953397
19
-29.550887
C      -0.9719724142     0.3414011716    -1.1913831331
N      -0.3137557084    -0.1853520910     0.0049110887
C      -0.9838430149     0.2609547086     1.2268142706
C      -0.1924183719    -1.6422826227    -0.0452596145
H      -1.0046955446     1.4280790280    -1.1409929932
H      -0.4070004126     0.0486918581    -2.0740912995
H      -1.9883296557    -0.0451140466    -1.2736822888
H      -1.0021351274     1.3490448601     1.2542983278
H      -0.4357835847    -0.1015303296     2.0942602620
H      -2.0057573243    -0.1179135369     1.2668772553
H       0.3449700490    -1.9996888500     0.8301996420
H       0.3792186928    -1.9357449687    -0.9229171385
H      -1.1776605008    -2.1103045492    -0.0811846485
H       0.7122519102     0.2653648481     0.0264177052
F       0.4988302003     2.8945186241    -0.0131818680
H       1.2056103957     2.3330748213     0.0122167755
F       1.9121330501     0.9189201574     0.0538296232
H       2.6460417822    -0.3721026817     0.0067856157
F       2.7842955791    -1.3300164008    -0.0339175820
19
-29.550891
C      -0.9726020279     0.3410681968    -1.1915430056
N      -0.3139288662    -0.1853693806     0.0048383904
C      -0.9843065070     0.2606598405     1.2268027321
C      -0.1921631317    -1.6422214460    -0.0452206624
H      -1.0046187566     1.4276916467    -1.1412028684
H      -0.4073259453     0.0491196535    -2.0744418904
H      -1.9891454693    -0.0451149149    -1.2737636620
H      -1.0023096494     1.3486647869     1.2540708190
H      -0.4359621380    -0.1009271276     2.0945937262
H      -2.0063838479    -0.1177783957     1.2669644803
H       0.3449985397    -1.9995037017     0.8304558988
H       0.3787841757    -1.9355201788    -0.9233793424
H      -1.1775971238    -2.1100310213    -0.0810524786
H       0.7116070727     0.2667264575     0.0264169790
F       0.4994238503     2.8937223005    -0.0123301383
H       1.2056320262     2.3314641149     0.0125267253
F       1.9119044762     0.9186731038     0.0536060068
H       2.6470426743    -0.3714530841     0.0065346231
F       2.7869506480    -1.3298708504    -0.0338763329
19
-29.550897
C      -0.9734118075     0.3403346622    -1.1917478551
N      -0.3141284391    -0.1851534387     0.0047085394
C      -0.9848720024     0.2600447715     1.2267054591
C      -0.1910640117    -1.6418656416    -0.0451572286
H      -1.0046010474     1.4269684063    -1.1415159229
H      -0.4079688812     0.0498881943    -2.0749646791
H      -1.9903052597    -0.0455397088    -1.2736668167
H      -1.0027061139     1.3479684928     1.2535777587
H      -0.4362840633    -0.0999088758     2.0949832546
H      -2.0072509229    -0.1179259051     1.2668622228
H       0.3459230233    -1.9985195086     0.8310428039
H       0.3788808967    -1.9344877381    -0.9242582201
H      -1.1765044296    -2.1093208741    -0.0807572609
H       0.7105784712     0.2691619171     0.0264105163
F       0.5002478150     2.8928153600    -0.0107015779
H       1.2050856987     2.3286040936     0.0130981365
F       1.9116603786     0.9185947035     0.0531705825
H       2.6482695434    -0.3715440907     0.0060339922
F       2.7884511517    -1.3301148196    -0.0338237048
19
-29.550901
C      -0.9742462727     0.3398966905    -1.1918141731
N      -0.3143002984    -0.1849140711     0.0046073416
C      -0.9855500957     0.2597464353     1.2264969053
C      -0.1897187548    -1.6412053021    -0.0450998285
H      -1.0048148985     1.4263149363    -1.1417292831
H      -0.4086910953     0.0503741875    -2.0754528123
H      -1.9910781641    -0.0460996383    -1.2734510014
H      -1.0032657566     1.3474440413     1.2530054881
H      -0.4366427104    -0.0991425960     2.0952057710
H      -2.0078247831    -0.1182877420     1.2666520352
H       0.3472329509    -1.9971022807     0.8314450059
H       0.3793987616    -1.9330838624    -0.9249880872
H      -1.1751669906    -2.1086726806    -0.0803943405
H       0.7095647168     0.2711018777     0.0263513898
F       0.5009669246     2.8918702609    -0.0089653078
H       1.2044931885     2.3257523045     0.0137402253
F       1.9115765283     0.9184337856     0.0526559791
H       2.6493158146    -0.3722153077     0.0055126348
F       2.7887509348    -1.3302110387    -0.0337779422
19
-29.550905
C      -0.9747111432     0.3396314357    -1.1919096335
N      -0.3145812658    -0.1844287579     0.0045211930
C      -0.9859684184     0.2596888457     1.2263604802
C      -0.1884431167    -1.6404433269    -0.0451007202
H      -1.0054512166     1.4259449914    -1.1418896709
H      -0.4095452527     0.0505306378    -2.0756912986
H      -1.9916411901    -0.0467331269    -1.2731745584
H      -1.0041305504     1.3472683201     1.2524668914
H      -0.4370996077    -0.0986283071     2.0950943119
H      -2.0082760604    -0.1188372209     1.2663673807
H       0.3488924995    -1.9955304579     0.8315711477
H       0.3803153167    -1.9315988661    -0.9254697115
H      -1.1736245842    -2.1081829182    -0.0799814121
H       0.7088149117     0.2724093219     0.0262401804
F       0.5014555928     2.8910449018    -0.0072099190
H       1.2038148204     2.3232800712     0.0144468386
F       1.9115760467     0.9182903117     0.0521117165
H       2.6502453800    -0.3732590634     0.0050117063
F       2.7883578385    -1.3304467918    -0.0337649223
19
-29.550910
C      -0.9755623013     0.3396261577    -1.1918960557
N      -0.3149312756    -0.1837378544     0.0044188969
C      -0.9868162226     0.2599770001     1.2260531180
C      -0.1869994729    -1.6393072236    -0.0451259619
H      -1.0067947709     1.4257289927    -1.1421364451
H      -0.4106376930     0.0502881652    -2.0759265420
H      -1.9921443296    -0.0474051273    -1.2728192097
H      -1.0056793795     1.3474021245     1.2518702390
H      -0.4376499550    -0.0982602410     2.0947954927
H      -2.0086764289    -0.1195212632     1.2659973838
H       0.3511707690    -1.9934746054     0.8313623127
H       0.3816295152    -1.9297402709    -0.9258296381
H      -1.1717778957    -2.1078420225    -0.0793944206
H       0.7081488369     0.2733198881     0.0260250360
F       0.5018619990     2.8899012970    -0.0048377445
H       1.2030394142     2.3204881489     0.0154997855
F       1.9115948611     0.9179036537     0.0513483917
H       2.6516790372    -0.3745375586     0.0043864972
F       2.7885452923    -1.3308092609    -0.0337911359
19
-29.550918
C      -0.9770403080     0.3397147237    -1.1920971259
N      -0.3158756377    -0.1822489551     0.0042080622
C      -0.9882756497     0.2606495956     1.2256481502
C      -0.1848931119    -1.6373328904    -0.0452295683
H      -1.0098480445     1.4257262791    -1.1427168349
H      -0.4128000838     0.0495546879    -2.0760279173
H      -1.9933635141    -0.0483981847    -1.2722260970
H      -1.0090770409     1.3480505747     1.2509391485
H      -0.4387890714    -0.0976367202     2.0939038260
H      -2.0096674776    -0.1206271017     1.2653691786
H       0.3552009749    -1.9898847057     0.8306381940
H       0.3837771974    -1.9265658576    -0.9262669480
H      -1.1688144738    -2.1075724015    -0.0782687920
H       0.7073183165     0.2741542543     0.0255472620
F       0.5023683096     2.8875385925    -0.0003113001
H       1.2019185161     2.3158764215     0.0176491388
F       1.9115927509     0.9167102277     0.0498664590
H       2.6549689970    -0.3762381848     0.0032727165
F       2.7912993509    -1.3314703553    -0.0338975523
19
-29.550930
C      -0.9798744004     0.3400823263    -1.1923508795
N      -0.3173444809    -0.1799147516     0.0037931577
C      -0.9909745803     0.2619016953     1.2248561343
C      -0.1822168731    -1.6344139234    -0.0453937230
H      -1.0151332801     1.4260048271    -1.1439315633
H      -0.4160603915     0.0481886018    -2.0761500628
H      -1.9955100164    -0.0496217254    -1.2714014363
H      -1.0148922320     1.3492823001     1.2498433542
H      -0.4404974998    -0.0966378412     2.0925303840
H      -2.0112969842    -0.1220563452     1.2644792960
H       0.3612552873    -1.9847235955     0.8292477851
H       0.3867596145    -1.9220856119    -0.9268062042
H      -1.1646382870    -2.1076356777    -0.0764997324
H       0.7064968495     0.2748940501     0.0247224991
F       0.5027725279     2.8837535517     0.0068794249
H       1.2004180654     2.3095213562     0.0212246744
F       1.9116033909     0.9143643419     0.0475134337
H       2.6607677286    -0.3781538444     0.0015881420
F       2.7983655618    -1.3327497344    -0.0341446838
19
-29.550942
C      -0.9830420672     0.3404397910    -1.1929050727
N      -0.3191095417    -0.1775015150     0.0032826288
C      -0.9937914437     0.2630963575     1.2241301511
C      -0.1800307946    -1.6317545472    -0.0455600460
H      -1.0208442815     1.4266098712    -1.1455322936
H      -0.4194835725     0.0469147185    -2.0761047462
H      -1.9982845513    -0.0505848935    -1.2706507013
H      -1.0212128875     1.3507002230     1.2491059112
H      -0.4424079575    -0.0952333860     2.0910799464
H      -2.0133070356    -0.1232084727     1.2636625261
H       0.3668957792    -1.9799279218     0.8276778873
H       0.3890569386    -1.9179814148    -0.9272938661
H      -1.1610458161    -2.1082900777    -0.0746881291
H       0.7059766714     0.2752867941     0.0237700599
F       0.5027957883     2.8795203344     0.0143961673
H       1.1993961580     2.3039403443     0.0251492252
F       1.9117939928     0.9111004981     0.0450331046
H       2.6674634630    -0.3791546923    -0.0000758166
F       2.8091811578    -1.3339720111    -0.0344769364
19
-29.550949
C      -0.9854248815     0.3407427846    -1.1932716476
N      -0.3201125907    -0.1760126896     0.0028160165
C      -0.9957397151     0.2638484397     1.2235426001
C      -0.1790000509    -1.6303560444    -0.0456337484
H      -1.0245553136     1.4271172957    -1.1469718422
H      -0.4215750670     0.0464261153    -2.0761971438
H      -2.0003591200    -0.0511503109    -1.2701902763
H      -1.0253513536     1.3515008876     1.2491131999
H      -0.4436690955    -0.0938800615     2.0904352840
H      -2.0146226983    -0.1238327085     1.2631316102
H       0.3703141010    -1.9773163190     0.8267505492
H       0.3902237847    -1.9158035485    -0.9276623636
H      -1.1587530228    -2.1092947451    -0.0735532784
H       0.7059072663     0.2757309493     0.0230483054
F       0.5022153671     2.8767905797     0.0192200291
H       1.1990410174     2.3016083538     0.0278397435
F       1.9123560401     0.9084741259     0.0434278129
H       2.6716856898    -0.3794842007    -0.0010620563
F       2.8174196426    -1.3351089033    -0.0347827942
19
-29.550956
C      -0.9871631247     0.3408571940    -1.1936918445
N      -0.3206920377    -0.1749554359     0.0024246288
C      -0.9969579962     0.2641671115     1.2231258615
C      -0.1777803630    -1.6294979510    -0.0456456214
H      -1.0270302262     1.4275450415    -1.1483215071
H      -0.4230858923     0.0466656569    -2.0764087269
H      -2.0019300160    -0.0517686412    -1.2697528483
H      -1.0281584284     1.3519533752     1.2494987212
H      -0.4447051111    -0.0923303253     2.0902729069
H      -2.0154501167    -0.1244394904     1.2625926672
H       0.3728495653    -1.9755452818     0.8262296164
H       0.3911014557    -1.9143639025    -0.9279573593
H      -1.1567749146    -2.1106471966    -0.0727566974
H       0.7059186211     0.2766085728     0.0223838542
F       0.5011551187     2.8747531448     0.0226587653
H       1.1991225596     2.3011232610     0.0299001340
F       1.9134926556     0.9062381761     0.0422329624
H       2.6737772896    -0.3799564419    -0.0016991089
F       2.8223109612    -1.3364068672    -0.0350864042
19
-29.550964
C      -0.9892382387     0.3410042033    -1.1941145143
N      -0.3210648840    -0.1736321216     0.0018698689
C      -0.9983412081     0.2645699930     1.2225559833
C      -0.1758385091    -1.6283637580    -0.0456264985
H      -1.0298404062     1.4278556783    -1.1501437106
H      -0.4250121862     0.0475342614    -2.0770510156
H      -2.0036773815    -0.0529948036    -1.2690196523
H      -1.0313653908     1.3522294265     1.2500890856
H      -0.4460503399    -0.0899787019     2.0904886135
H      -2.0161906380    -0.1256491445     1.2616492943
H       0.3766312407    -1.9730400879     0.8259071777
H       0.3928358940    -1.9123383742    -0.9285313430
H      -1.1531590991    -2.1126169520    -0.0717197247
H       0.7057537914     0.2785674343     0.0213941874
F       0.4992448793     2.8721675603     0.0270120272
H       1.1993981957     2.3013898357     0.0325842291
F       1.9156485622     0.9034436274     0.0406679801
H       2.6749324219    -0.3815049086    -0.0024750060
F       2.8253332962    -1.3386431677    -0.0355369823
19
-29.550972
C      -0.9914311097     0.3409975749    -1.1945957793
N      -0.3214282520    -0.1719674921     0.0013219884
C      -0.9998041778     0.2649274003     1.2219363143
C      -0.1723249334    -1.6266894504    -0.0456090069
H      -1.0330494118     1.4279752068    -1.1521307338
H      -0.4275378027     0.0488592840    -2.0781002412
H      -2.0053454999    -0.0548491719    -1.2679861012
H      -1.0349888054     1.3525144359     1.2504715172
H      -0.4476994769    -0.0870904512     2.0909197286
H      -2.0167883231    -0.1275764525     1.2602872949
H       0.3817387925    -1.9694077868     0.8255712679
H       0.3955508771    -1.9094215612    -0.9292279923
H      -1.1480715125    -2.1149356040    -0.0703863594
H       0.7052397491     0.2816177736     0.0200915688
F       0.4967408305     2.8689897521     0.0324015805
H       1.1997259541     2.3018523735     0.0358798547
F       1.9184822106     0.9004810828     0.0387180020
H       2.6751763750    -0.3845921571    -0.0034589031
F       2.8258145162    -1.3416847567    -0.0361039999
19
-29.550978
C      -0.9929690944     0.3409513887    -1.1948561778
N      -0.3216579878    -0.1706614102     0.0009420126
C      -1.0009558756     0.2653469038     1.2215426535
C      -0.1695019390    -1.6250457801    -0.0456163321
H      -1.0356103710     1.4276977821    -1.1533363860
H      -0.4298058834     0.0498900203    -2.0791976749
H      -2.0064140848    -0.0565126808    -1.2671323635
H      -1.0378250142     1.3526477256     1.2501781656
H      -0.4489859871    -0.0849734997     2.0913080316
H      -2.0171904753    -0.1294331329     1.2591185016
H       0.3862163732    -1.9659648398     0.8254202115
H       0.3981447035    -1.9066945702    -0.9299702000
H      -1.1433729339    -2.1163094898    -0.0691896773
H       0.7044720712     0.2843911672     0.0189642061
F       0.4947466210     2.8662255083     0.0369960362
H       1.2000759062     2.3020853492     0.0386481915
F       1.9204776753     0.8984144280     0.0370790232
H       2.6750427992    -0.3879403075    -0.0043265512
F       2.8251134967    -1.3441145624    -0.0365716705
19
-29.550982
C      -0.9936362000     0.3407654286    -1.1949251350
N      -0.3218526060    -0.1698763997     0.0008387766
C      -1.0015705835     0.2655325600     1.2213545463
C      -0.1674036654    -1.6239201839    -0.0456591773
H      -1.0371436725     1.4273306744    -1.1535486868
H      -0.4312216043     0.0502720266    -2.0799368647
H      -2.0067535475    -0.0574423894    -1.2667203290
H      -1.0394399423     1.3527887295     1.2494009133
H      -0.4495825391    -0.0841164289     2.0914570468
H      -2.0173316684    -0.1305884364     1.2584997621
H       0.3888549907    -1.9636847691     0.8252181417
H       0.3997683264    -1.9049627274    -0.9303081163
H      -1.1407392145    -2.1166407217    -0.0684288501
H       0.7038729592     0.2860796387     0.0182983159
F       0.4937184702     2.8645480644     0.0397560464
H       1.2003715202     2.3021060992     0.0402761059
F       1.9210417521     0.8977951624     0.0361449335
H       2.6747424182    -0.3904114299    -0.0048800670
F       2.8243048067    -1.3455748974    -0.0368373624
19
-29.550984
C      -0.9940176952     0.3405850171    -1.1949717029
N      -0.3219670422    -0.1694449237     0.0007728126
C      -1.0019773106     0.2656809506     1.2212808783
C      -0.1662794542    -1.6230425848    -0.0456885829
H      -1.0382977755     1.4269129086    -1.1532347748
H      -0.4322606692     0.0503149232    -2.0804755613
H      -2.0069502023    -0.0579758628    -1.2665690168
H      -1.0406117843     1.3528690654     1.2483004910
H      -0.4498615735    -0.0838016431     2.0914114269
H      -2.0174739893    -0.1313437633     1.2582084481
H       0.3906411871    -1.9620120383     0.8250983728
H       0.4008653148    -1.9037744355    -0.9305942820
H      -1.1390539019    -2.1163877172    -0.0678346491
H       0.7033751300     0.2871878465     0.0178157189
F       0.4930680857     2.8631385885     0.0418195071
H       1.2009434934     2.3022233882     0.0415047498
F       1.9208117019     0.8976742537     0.0354877752
H       2.6744749559    -0.3922103625    -0.0053003843
F       2.8245715294    -1.3465936105    -0.0370312269
19
-29.550987
C      -0.9944749599     0.3403299020    -1.1950150592
N      -0.3221039913    -0.1689736454     0.0006389347
C      -1.0023868674     0.2657407988     1.2210625554
C      -0.1650464966    -1.6222770019    -0.0457246945
H      -1.0396114511     1.4265175441    -1.1526277522
H      -0.4332510074     0.0502213878    -2.0809868890
H      -2.0072368539    -0.0584403728    -1.2665465685
H      -1.0419189816     1.3529437182     1.2468826764
H      -0.4499977883    -0.0835769957     2.0912340309
H      -2.0176079606    -0.1320059907     1.2580653330
H       0.3923935085    -1.9604039965     0.8249145053
H       0.4018526282    -1.9027309364    -0.9307719459
H      -1.1376796889    -2.1159591008    -0.0671916622
H       0.7030034975     0.2883273598     0.0173061588
F       0.4922944442     2.8616017819     0.0440609927
H       1.2018677542     2.3028167584     0.0428903091
F       1.9201629136     0.8977589433     0.0348188394
H       2.6739878836    -0.3939945131    -0.0057454935
F       2.8257534170    -1.3478956409    -0.0372642710
19
-29.550988
C      -0.9949557123     0.3401597550    -1.1951520799
N      -0.3221255873    -0.1687850161     0.0004119007
C      -1.0026321061     0.2656924083     1.2207952717
C      -0.1644521124    -1.6218532023    -0.0456986668
H      -1.0405851911     1.4263283590    -1.1520377226
H      -0.4338450787     0.0501493754    -2.0812187322
H      -2.0076235153    -0.0587714241    -1.2666244423
H      -1.0428862927     1.3529290625     1.2457647732
H      -0.4500079572    -0.0833253725     2.0909140751
H      -2.0177031094    -0.1323894189     1.2581023684
H       0.3935468746    -1.9594810762     0.8248435013
H       0.4023989129    -1.9022400919    -0.9308958927
H      -1.1369902545    -2.1156141364    -0.0667214244
H       0.7029167142     0.2891650983     0.0169324767
F       0.4915724685     2.8605215157     0.0457554516
H       1.2028273798     2.3038940794     0.0440110954
F       1.9195394022     0.8977193034     0.0343484153
H       2.6734369191    -0.3951024477    -0.0060548844
F       2.8275682459    -1.3489967709    -0.0374754840
19
-29.550989
C      -0.9952450189     0.3401145744    -1.1952048868
N      -0.3220948830    -0.1687110125     0.0001950382
C      -1.0026706437     0.2656149293     1.2204854597
C      -0.1642482560    -1.6219057943    -0.0456781578
H      -1.0409210959     1.4263713243    -1.1517415769
H      -0.4338937938     0.0501664453    -2.0811794411
H      -2.0078896299    -0.0589818849    -1.2667036579
H      -1.0432036045     1.3528398740     1.2453518721
H      -0.4498870869    -0.0831153745     2.0906384524
H      -2.0176670549    -0.1325150752     1.2582070614
H       0.3939496525    -1.9593297532     0.8248523207
H       0.4025283817    -1.9022579224    -0.9308581827
H      -1.1369250079    -2.1155190362    -0.0665495222
H       0.7030532409     0.2895506318     0.0168047151
F       0.4912133567     2.8602943269     0.0464333109
H       1.2032910277     2.3047831050     0.0445013733
F       1.9193377158     0.8976076587     0.0341955039
H       2.6728753560    -0.3954451766    -0.0061656140
F       2.8283973440    -1.3495618401    -0.0375840683
19
-29.550990
C      -0.9954188221     0.3401340091    -1.1952688700
N      -0.3220167773    -0.1687802594     0.0000282084
C      -1.0026157576     0.2655347199     1.2202672248
C      -0.1642344001    -1.6219821439    -0.0456295330
H      -1.0409767128     1.4264662299    -1.1515864741
H      -0.4337649519     0.0502347055    -2.0810151902
H      -2.0080287479    -0.0591666822    -1.2667525705
H      -1.0432245839     1.3527704178     1.2452185177
H      -0.4497272680    -0.0829334439     2.0903390144
H      -2.0175734140    -0.1325937898     1.2582964072
H       0.3940852426    -1.9594105831     0.8248892495
H       0.4025760389    -1.9024186396    -0.9308114108
H      -1.1370134515    -2.1155007195    -0.0664948119
H       0.7031898981     0.2897402443     0.0167830762
F       0.4911293375     2.8604635210     0.0467098300
H       1.2034342551     2.3053016189     0.0447034678
F       1.9193683369     0.8974477058     0.0341690640
H       2.6723581211    -0.3955240664    -0.0062130350
F       2.8284536569    -1.3497828445    -0.0376321645
19
-29.550990
C      -0.9955885678     0.3401571163    -1.1952835533
N      -0.3219817808    -0.1687782937    -0.0001542401
C      -1.0025660556     0.2655119753     1.2199815179
C      -0.1641750535    -1.6220852792    -0.0456178064
H      -1.0410459061     1.4265451990    -1.1514257710
H      -0.4336054016     0.0503379759    -2.0808253011
H      -2.0081563905    -0.0594265233    -1.2668026610
H      -1.0432244317     1.3526951532     1.2450452647
H      -0.4494592194    -0.0827188126     2.0899577419
H      -2.0174512432    -0.1327529188     1.2583803497
H       0.3942653474    -1.9594503488     0.8249082731
H       0.4026545559    -1.9025784714    -0.9307273596
H      -1.1370501565    -2.1154518783    -0.0664122642
H       0.7032680514     0.2899517539     0.0167596243
F       0.4912143960     2.8607656327     0.0471154547
H       1.2034830075     2.3056054807     0.0449439090
F       1.9194828510     0.8972021699     0.0341326816
H       2.6717409993    -0.3956289053    -0.0063038819
F       2.8281949983    -1.3499010254    -0.0376719781
19
-29.550990
C      -0.9957807863     0.3401631125    -1.1953135851
N      -0.3219555912    -0.1687758355    -0.0003416414
C      -1.0025382150     0.2655066539     1.2197186612
C      -0.1640049652    -1.6220425167    -0.0455913791
H      -1.0412743870     1.4265542159    -1.1512434395
H      -0.4335023428     0.0504831991    -2.0806530058
H      -2.0082547529    -0.0597716110    -1.2668606623
H      -1.0433297224     1.3526842968     1.2447274556
H      -0.4490719118    -0.0824448644     2.0894585970
H      -2.0173000452    -0.1330408398     1.2584399305
H       0.3945914224    -1.9593411267     0.8248689246
H       0.4028483230    -1.9027099329    -0.9306656864
H      -1.1369391372    -2.1153591919    -0.0662536072
H       0.7032507154     0.2902429465     0.0166850983
F       0.4914578505     2.8611687512     0.0478455365
H       1.2034508449     2.3056948218     0.0453359157
F       1.9196082461     0.8969075766     0.0340450315
H       2.6710382549    -0.3958890460    -0.0064797896
F       2.8277061999    -1.3500306094    -0.0377223545
19
-29.550991
C      -0.9959580160     0.3401160195    -1.1953368346
N      -0.3219989504    -0.1686917106    -0.0004943041
C      -1.0025449525     0.2655848338     1.2194901472
C      -0.1637944586    -1.6219391112    -0.0456303628
H      -1.0416953416     1.4264696075    -1.1510716794
H      -0.4334956303     0.0506703205    -2.0805971705
H      -2.0083265659    -0.0601255908    -1.2669437271
H      -1.0435794285     1.3527148683     1.2442677611
H      -0.4485679921    -0.0821397814     2.0889837290
H      -2.0171585336    -0.1334145741     1.2584791779
H       0.3949772794    -1.9590806105     0.8247918175
H       0.4030357178    -1.9027968496    -0.9306195387
H      -1.1367023111    -2.1152398618    -0.0660176270
H       0.7031087252     0.2905164317     0.0165307036
F       0.4918487512     2.8615619510     0.0488949471
H       1.2034303980     2.3055807416     0.0458924048
F       1.9196827053     0.8965725601     0.0338971691
H       2.6704021696    -0.3962205268    -0.0067293171
F       2.8273364343    -1.3501387174    -0.0377872962
19
-29.550991
C      -0.9961015009     0.3400389837    -1.1953903733
N      -0.3220596330    -0.1686120090    -0.0006422194
C      -1.0025393672     0.2656637502     1.2193700594
C      -0.1635685200    -1.6217696073    -0.0456469464
H      -1.0423078490     1.4262973796    -1.1509492137
H      -0.4335521313     0.0509235562    -2.0806942198
H      -2.0083432452    -0.0604718849    -1.2670714810
H      -1.0439646409     1.3528208367     1.2437218776
H      -0.4479509319    -0.0817709567     2.0885703437
H      -2.0169711289    -0.1338377329     1.2585169295
H       0.3953403416    -1.9587378791     0.8246712171
H       0.4031856876    -1.9029148410    -0.9306323211
H      -1.1364060077    -2.1151610351    -0.0657310181
H       0.7028922663     0.2907256885     0.0162869612
F       0.4923568875     2.8620243796     0.0502102260
H       1.2034335213     2.3054128788     0.0466051945
F       1.9196810484     0.8962679638     0.0337127247
H       2.6698202036    -0.3965957443    -0.0070299823
F       2.8270549995    -1.3503037268    -0.0378777585
19
-29.550992
C      -0.9962342575     0.3399013409    -1.1955333612
N      -0.3221569782    -0.1685429975    -0.0007876546
C      -1.0024696611     0.2658021722     1.2192840534
C      -0.1634263888    -1.6216305429    -0.0457368733
H      -1.0431383271     1.4260801316    -1.1508830517
H      -0.4336480981     0.0513065615    -2.0809707207
H      -2.0083148026    -0.0608385293    -1.2672905629
H      -1.0444900277     1.3529473008     1.2430829872
H      -0.4471400156    -0.0812598907     2.0882467364
H      -2.0166944959    -0.1343223886     1.2586137187
H       0.3956207698    -1.9583645050     0.8245751336
H       0.4031648362    -1.9031192045    -0.9306750295
H      -1.1361372730    -2.1151661533    -0.0653797042
H       0.7026127631     0.2907989802     0.0159154548
F       0.4930485744     2.8626150771     0.0519015798
H       1.2035551647     2.3052898324     0.0475602059
F       1.9195920985     0.8959406736     0.0334815363
H       2.6692568861    -0.3969375588    -0.0073914984
F       2.8269992328    -1.3505002999    -0.0380129496
19
-29.550992
C      -0.9963570540     0.3397706342    -1.1957642153
N      -0.3222692757    -0.1685314832    -0.0010510053
C      -1.0022744789     0.2659049287     1.2192472965
C      -0.1634124057    -1.6215993661    -0.0457620720
H      -1.0441763887     1.4258335480    -1.1508971742
H      -0.4337241837     0.0518585859    -2.0814692863
H      -2.0082472207    -0.0612896290    -1.2676548693
H      -1.0451289654     1.3531090405     1.2423849272
H      -0.4461218644    -0.0805070593     2.0880067528
H      -2.0162231287    -0.1348642657     1.2588441232
H       0.3957324469    -1.9580160381     0.8244908142
H       0.4029256363    -1.9034779402    -0.9308009894
H      -1.1359960918    -2.1153169088    -0.0649811435
H       0.7023332841     0.2906866180     0.0153959619
F       0.4939636745     2.8634441140     0.0540113869
H       1.2038418393     2.3053422817     0.0488099963
F       1.9193947901     0.8956399522     0.0332090005
H       2.6686687293    -0.3972241102    -0.0078056397
F       2.8270706572    -1.3507629028    -0.0382138646
19
-29.550993
C      -0.9965275538     0.3396166444    -1.1961841302
N      -0.3223815058    -0.1686379257    -0.0013800332
C      -1.0019184127     0.2660375481     1.2191406960
C      -0.1635978128    -1.6217114336    -0.0458651596
H      -1.0453198667     1.4256709439    -1.1509884511
H      -0.4337803447     0.0525766504    -2.0821187826
H      -2.0081513324    -0.0618635260    -1.2681876519
H      -1.0458091052     1.3532167487     1.2416972167
H      -0.4449720831    -0.0794879213     2.0878785329
H      -2.0155476696    -0.1354547898     1.2592871020
H       0.3956878426    -1.9577537230     0.8245222129
H       0.4023948995    -1.9039450784    -0.9309516609
H      -1.1360812211    -2.1156385969    -0.0645574283
H       0.7021284453     0.2903602105     0.0147432452
F       0.4950874002     2.8644589733     0.0564623501
H       1.2043513199     2.3056074850     0.0503330570
F       1.9190905040     0.8954034130     0.0328938254
H       2.6681224580    -0.3974076216    -0.0082398134
F       2.8272240384    -1.3510480010    -0.0384851268
19
-29.550994
C      -0.9967480642     0.3395566347    -1.1966375122
N      -0.3225103009    -0.1688069281    -0.0018890315
C      -1.0014637970     0.2660926059     1.2189723229
C      -0.1639691359    -1.6220132356    -0.0458448032
H      -1.0463628315     1.4255929145    -1.1511210281
H      -0.4337838302     0.0533394097    -2.0828235566
H      -2.0081027712    -0.0625806692    -1.2688681224
H      -1.0463938911     1.3532792587     1.2410876669
H      -0.4438968894    -0.0782713888     2.0877923473
H      -2.0147193769    -0.1360403979     1.2599637076
H       0.3954747984    -1.9575800163     0.8245850083
H       0.4016756833    -1.9044249537    -0.9311668077
H      -1.1364254925    -2.1160614692    -0.0641703964
H       0.7020724893     0.2898796311     0.0140439398
F       0.4963128427     2.8654854640     0.0589872832
H       1.2050652102     2.3060130263     0.0519755475
F       1.9187148190     0.8952888291     0.0325500343
H       2.6677312333    -0.3974784825    -0.0086344488
F       2.8273293045    -1.3512702329    -0.0388021508
19
-29.550994
C      -0.9970677738     0.3395107017    -1.1971306656
N      -0.3226240525    -0.1690225080    -0.0023601708
C      -1.0010538540     0.2661703058     1.2186704373
C      -0.1643688546    -1.6222942309    -0.0459016538
H      -1.0471565193     1.4256368435    -1.1512282562
H      -0.4338144942     0.0539933238    -2.0833468123
H      -2.0081196587    -0.0633707917    -1.2695787238
H      -1.0468165194     1.3532655380     1.2405863157
H      -0.4430788266    -0.0770756545     2.0876781423
H      -2.0139470065    -0.1366109647     1.2607665462
H       0.3953417247    -1.9574443100     0.8246866708
H       0.4009853390    -1.9047364233    -0.9313310291
H      -1.1368636988    -2.1164512297    -0.0638389700
H       0.7021717091     0.2894526888     0.0134063916
F       0.4974339968     2.8662592120     0.0612831656
H       1.2058307084     2.3063526754     0.0535210100
F       1.9183664074     0.8953163627     0.0321843207
H       2.6675915131    -0.3975356049    -0.0089504555
F       2.8271898599    -1.3514159339    -0.0391162631
19
-29.550995
C      -0.9974195078     0.3395085835    -1.1974272838
N      -0.3227737292    -0.1691245010    -0.0027921203
C      -1.0008409127     0.2662278690     1.2183726025
C      -0.1646848758    -1.6224841358    -0.0458859177
H      -1.0476599235     1.4256573014    -1.1512607131
H      -0.4338821918     0.0544064552    -2.0836291396
H      -2.0082467483    -0.0640949863    -1.2702071312
H      -1.0470731846     1.3532639569     1.2401392089
H      -0.4425724963    -0.0761052718     2.0874532693
H      -2.0134241030    -0.1371144002     1.2615207818
H       0.3953156904    -1.9572749074     0.8246579661
H       0.4005065683    -1.9048412601    -0.9314753090
H      -1.1372240322    -2.1166599169    -0.0635755285
H       0.7023225248     0.2892174624     0.0129096340
F       0.4983027863     2.8666004575     0.0631425909
H       1.2065223509     2.3064644285     0.0547981379
F       1.9181318627     0.8953802608     0.0318154234
H       2.6677405551    -0.3975991772    -0.0091780906
F       2.8269593666    -1.3514282185    -0.0393783808
19
-29.550995
C      -0.9977652066     0.3394474581    -1.1976170091
N      -0.3229159866    -0.1691428795    -0.0030392400
C      -1.0008224006     0.2663308643     1.2181197671
C      -0.1648360707    -1.6224692786    -0.0459543781
H      -1.0480423720     1.4256052367    -1.1512390852
H      -0.4340036952     0.0546312776    -2.0837020495
H      -2.0084105403    -0.0646840625    -1.2707174449
H      -1.0472819845     1.3533115230     1.2396868035
H      -0.4421965827    -0.0753878013     2.0871488881
H      -2.0131577793    -0.1375757751     1.2621289939
H       0.3954620235    -1.9570748238     0.8245212381
H       0.4002566252    -1.9048301820    -0.9315604401
H      -1.1373892545    -2.1167007287    -0.0633380568
H       0.7024382150     0.2892132328     0.0125122267
F       0.4989197776     2.8666491740     0.0646927632
H       1.2070595224     2.3064033730     0.0558630964
F       1.9180392368     0.8954372435     0.0314474726
H       2.6680427009    -0.3977238498    -0.0093594264
F       2.8266037716    -1.3514400017    -0.0395941193
